2000
Random sphere (Final Radius: 21.22A, MinDist: 0.8A)
C   -11.074959  17.011521   2.019303
Sr   -3.472207  -0.563494 -16.019261
C    -1.509213  -5.251993   2.167634
Na   -4.112045 -18.229680   0.602473
Ir   13.089516  12.526670  -5.163806
N     8.917403  -5.812165   5.089375
Al  -15.695924  -1.215602  -0.715657
Cs   -3.252825   2.526978  11.472503
Be  -12.464784 -12.238368  -5.628486
Rh    5.730104  -3.856036 -17.247109
Nd   -6.810796  16.416580  -0.613865
Tl   15.498772  11.568648  -0.757197
Sc   -7.565236   0.536002 -10.555852
Cu   -5.767493  -0.027810  14.647355
Be   -0.951632 -10.293932   7.328538
Er    9.079376  15.397273  -1.610434
Tl   -6.451667 -17.165348  -6.442402
Xe   -4.371750  20.626637  -0.904644
Ba    3.593185  -1.382971 -13.401376
Eu   -4.721573   2.034875  14.098493
Au  -15.840293   2.132640 -11.600124
Fe   10.530934  14.475167   4.885529
Se    6.045234  13.255597   7.579760
Sc    0.593880  -3.296778 -18.427495
Hf    6.559178  -9.831641   0.826066
Tb   -8.299221  11.775564   5.006748
Tm   -7.478193   1.124787 -11.147101
Re    4.632387  -7.156715   9.166690
Sc    3.260818  -2.485297 -12.175435
Cd   19.248407   0.865130   4.925936
Er    0.863858  -9.122506   1.607772
Mn    6.666728  -2.391616 -18.701183
Pm   -3.081956 -12.401496  -0.430098
B   -13.519804  -0.746739  -7.749386
Cd  -10.277249  -6.292015  14.969647
Er   10.246027   8.988772   4.222527
Eu  -15.798391  -6.576122   3.370700
Sm  -10.514739   4.706074 -15.637600
Yb   15.328643  -1.107867  -2.578391
Bi   -1.935772   6.683150  -5.140850
Ce  -10.215512 -13.285894   8.539741
Nd    8.737692  -8.808508  -9.283340
Al  -12.920060  -3.854157  11.759652
Ta   12.397471 -10.976681  -6.094852
Zr   11.603096  -9.730535   9.687115
Tc   14.822142   2.265700   8.541017
La    1.315909   1.307195 -20.233627
Bi  -17.788683  -3.529956   5.253780
Ho    0.310731  -4.109186  15.474646
Br   11.168602  -6.859818  -7.212336
Li    0.450247   5.199960  -0.112457
At    6.197555   4.794102  19.529283
Ga    1.549016 -10.904544 -16.027318
He    6.252517   2.210515   3.504433
Yb    3.753764 -15.500693  -1.853058
Rn   -2.730983 -18.511430   3.478275
Pr    5.327574   3.959093   1.545243
Sm   -3.839628   3.630129 -12.384752
Bi    6.329888 -18.491429  -3.883790
Zn  -17.184770  -9.473744  -0.297946
Yb  -12.391181  -7.384034   2.675428
Zr   17.323533 -11.450343   3.539725
S   -13.083631  10.491838   8.418082
S    19.326801   5.056729  -0.423814
Mo   11.441269  14.423585   0.643000
F   -11.612000 -12.325189 -10.200815
K     7.593825   7.658885  -3.033051
Dy   -2.026908  12.436966  -7.289788
Pd  -10.933721   8.800810  -1.585069
Sc   14.717688  10.115330   7.874554
Si   13.634273   1.050329  -6.911164
Co    4.129676 -10.322333  -1.051626
Ge  -10.889580   0.092403 -10.915722
In    4.007064  -4.751169  -9.950303
Ar   10.026360   7.170554 -11.578365
Xe  -12.029178   8.367709 -14.112295
Er   -8.808267 -16.390896  -3.611512
Ar   11.401962  -0.827282   8.200443
Hf   -2.249119 -17.955032   9.013647
Au    7.201190  -2.890499  12.229947
Nd    4.851860  -2.761279  10.013798
Tm  -12.346406 -14.216910  -5.820981
Pm   -1.058567 -17.459111   1.116570
Sr   16.204952   1.814754  -5.231312
Tb   -8.912347   0.593309  -2.367999
B     7.671374  -1.998233  17.153895
F    -0.359188   3.330613  13.991406
W    16.968187  -3.402513  10.407015
Nd    4.559889  10.679560  -0.418817
Ta   15.493299   6.091551  -1.044479
C     1.303198  15.911518  -5.625614
Rn    2.150798   5.866529  11.684864
Ne   -6.343328  13.520361   3.614623
Pm    9.128378  10.643011  10.530499
Pd   20.369368   4.544676   1.127443
At  -10.567663  10.610742  -1.725130
Hg   13.716233   1.771830  15.110266
Yb    0.736610  15.039119 -11.553763
Ge   16.569677   0.267765  12.294084
Nd    4.366040  17.431957  -5.864748
Sb   -7.875736  -2.141165  -4.018240
Cs   10.952175  -7.243152  13.140236
At   -4.233274   5.890856  19.748593
Tl   -6.295872  16.001392  -2.377818
Re   16.259074   8.350983  -9.526923
Rb    6.954312 -15.300469   3.992188
Lu   -8.661946   5.968405  -5.162267
V   -15.226288   3.411183  -9.542359
O   -14.243096  -3.882632 -14.045507
Ne   -6.157806  15.879600   7.688259
Gd   15.731350  11.664473  -5.157645
F   -14.100419   0.036222  -8.924464
La   -9.125058   0.616494  -5.140794
Ge  -17.163540  10.460437  -1.103974
Tl   17.957066  -0.621229  -2.723555
Rn   -6.491996 -10.657107   3.433988
C    -1.381458  11.504468 -16.757738
Ge   -5.455346   3.563988  13.916050
Tm   -9.249553 -16.977776  -2.970779
At   13.915170   3.939093  -9.895815
Fe  -15.861101  -8.297847   4.994739
Zr   -2.228781  19.242176  -5.277108
Pd    4.967873  -2.884773 -16.488074
Ca  -18.925576  -2.040405   2.995139
Fe   -6.574633   2.862987   2.138693
Ni    8.303606  -2.514365  -9.757647
Co   12.794398   2.439873  -3.194287
Mo    8.735091 -16.688244  -1.759844
Y    -9.369468 -15.660888  -6.775170
Mg    8.342577   4.681668   6.106920
P    -3.674276  16.247119  -6.068753
Al    6.064939  18.914338  -5.796447
Nb    7.419594  14.428078  -3.868454
Po  -14.540308  -5.785752   7.464956
Cs  -13.881532  13.259355   0.823973
Dy   -9.940523  17.630705  -2.041196
Ba  -19.065435  -3.747144  -4.152462
Re    1.142635 -18.402299   4.883634
Sc   15.745188 -10.894320   5.248945
Nd   -5.868864  -3.548155   0.162298
Yb  -13.334136  -6.314065  -9.387946
Pr   -1.186281  -3.610372  -5.698671
Cu   -4.335535  -6.760952  12.810045
Pm   11.909542 -10.994054  -8.372358
Ge   -2.800131 -10.023703   2.621702
Ar    6.694789 -11.903500   4.090420
Li   -6.132854  -4.246718   1.329420
Al    9.661636  13.724545   7.964692
Pt   -2.750407   7.486063  -6.758471
Y     7.070572  13.866364  -7.090946
Sb  -17.856585   9.146719   1.610527
Te   -9.415702 -16.023884   4.052351
Cl   14.645085   6.760932 -10.171039
Ga   12.281142  -1.932351  13.711241
Se  -10.775209 -17.498598   2.087421
N    -1.253024 -12.973450  12.840270
Dy   -5.959727 -12.059238  16.056550
Pr    0.443066  -9.436023 -14.849839
Sn    6.233223   8.506875  11.898760
Eu   -3.893500  -4.125591  16.418313
Pb   -6.016591 -10.650701 -12.371135
Pd   -2.155233  20.766217   2.409439
Co    7.583706 -15.066799   5.456555
Pb   -4.756849  -1.420376  10.642872
Eu  -10.332127  15.160673   4.709484
Pd  -15.582757 -10.638071   5.041644
Nb    1.335528  12.516757   4.323552
Tm    3.371774 -14.562885  -7.495731
Er    9.162889   5.639210  10.281051
Pb   13.900715  14.917830   0.321033
Ag   -5.675446   6.862769   3.917509
N     5.462500  -0.156254  -3.029405
Te    3.123877  -6.139644  -3.793783
H   -20.729599   4.191861   0.421064
Ni   10.600065   0.821569  11.619104
Tl   -5.352051  -9.705435  16.686165
Pd    6.760449  -0.188498  -9.170162
Cs   -6.252083  -0.925165 -16.995845
Hf   11.963805   2.696490  -0.546016
Ti   15.179494  -4.956407   1.478182
Po    8.081759 -13.945137  -6.900418
Te   -8.410358   0.842893   0.608412
Pd   -9.227441   7.464251  15.017013
F    -3.157461   5.773610   6.676811
Te  -11.118788  17.310450  -3.571262
Na   -2.535076   2.391188 -15.844307
W     9.903112   7.964521  10.784094
K     7.139416  16.695737   5.193579
C    -2.265881  -9.872365  -9.975047
Zn  -19.280143   7.635380   2.969267
Ca   -7.081390  17.648506  -7.536444
Tb   -2.786550  14.609861  -6.647645
Ca  -10.799414 -11.570486  -3.854699
Ne  -16.840626   6.195690   6.730076
Yb  -18.674760  -7.898185  -5.534231
Ce    3.283030   7.250357  14.491219
In    4.292902   9.346617  -3.925520
C     8.348419  -0.064493 -12.292803
Ir    0.122134  -7.245363  15.872602
F    -6.700550 -14.400882   5.099759
La  -10.896761  -1.744471 -11.491694
Zn   11.991473   4.369992 -13.351724
B    -4.858441  -3.252775  -0.368230
Sr    6.654449  -1.809126 -14.994403
Mo   -9.092882   3.326741   4.567922
Tm  -10.777757 -11.429529  10.210807
Yb  -18.908963   2.314829   1.554838
Pd   11.310389   4.498432  -7.128239
Rh    9.511548 -12.257990   3.570748
Fe  -15.557938   8.733263  -6.364575
Tb   15.117551  -9.188854   2.614593
In    5.750428  -9.766084 -17.023250
Lu   12.063581  -4.342616  15.590746
Cs  -11.720205   6.001236 -16.264794
N    -1.521566 -19.016768   5.455690
Br   13.773442  11.276076 -10.222875
Sn  -20.859264   1.097118  -1.006296
S    -2.345715  -4.738990  -8.593953
Ag  -11.194711 -16.583391   4.918981
La   -9.621017  18.897478  -0.182763
Re   13.238382  -3.672710   1.603434
F     7.277168  -1.067947  -6.305163
B     5.718264   0.413220  -6.272370
Xe    5.193334  -2.242672   5.784434
Ag   13.382027  -7.155666   7.389824
Hg   -7.824580 -10.332813  11.335688
Kr   -3.952362   7.553521  10.243089
Ge    4.120561 -11.419585  -4.508194
Rb    6.890310  13.692280  -5.439881
W     2.063094  13.621277  11.418635
Pd  -10.926769   5.001210  12.668597
Pr   14.400284  -3.596727   4.078473
At   -1.134757   1.144122 -17.851946
Ti  -16.387714   3.880648   0.666451
Re   -0.475850  -6.574622  -2.441334
Y    13.940122  -1.517458  -5.859111
Ne   -9.307167  -3.465376 -16.642304
Rb   -8.888623   6.441504   1.093123
Ho   -9.492904   8.058568 -10.710223
Cu   -0.893806   6.561046  19.525411
Ca   -1.386344   0.533145   3.580373
La    9.340588   2.471140  -5.247024
Zr   -4.804785  14.578130   1.273995
Dy    5.574952  -2.926676  -5.570407
Rb  -10.028011   0.768293  -9.126675
Cl   -3.787171  12.815578  16.153023
Mg  -12.453088  14.371045  -2.282114
Al   -8.236963  -1.096128   4.939923
Sc    1.682798  -9.492408   4.393249
Cu    2.860867  17.339260   4.105899
Ga    5.204677  -5.057609  16.121588
Ni    2.439660  16.574757   7.671353
Sm    0.393792  20.908198   1.234824
Br    7.856739   8.219675  12.826848
Bi   12.616897   1.210675 -13.417787
Li   -2.687794  -6.461159  16.620515
Cl   13.613765  -5.082631  -1.551232
At   -4.564175   7.126032   6.372863
Cr    1.992977  10.484962   7.672431
Eu   -9.245060 -15.288113   7.230704
Li   15.744655  -5.561999   8.721530
V    16.208316   6.001962   5.452764
Be   -5.797706   0.956091   1.045557
Sb  -12.234603   2.620745  -6.508267
Po    9.859866  -3.693127   5.348522
K    18.282035  -5.978853  -0.657913
La  -11.355029 -11.436686   7.767301
Mg   -4.431267  -0.196618   1.358280
Yb   14.387365   8.247203   0.179112
Y    -2.339083  11.644188 -11.010455
Fe   -4.077459  -5.828667  10.822240
Tl    4.082473   4.502484   9.198317
Pr   -2.772041   8.249926  17.795959
Cl   -3.025377 -18.824374  -5.140943
K    12.810715  -6.832159 -13.474404
Rn    4.884110 -17.312904   3.491131
Nd    1.550649  -0.485708 -17.042765
W    10.584249  14.755023   9.603678
N     2.266201  -6.913842  19.272211
Na   -1.066622  -4.106065  13.543709
Zr  -11.715485   7.834301   4.649600
Ni    8.357913 -12.820422  -8.906000
Na    1.332068 -12.093998 -11.747715
He   -6.984442  -5.671751  15.922906
P     7.140793   1.335559 -19.726661
Cl    7.572798  19.009423  -3.003576
Os   10.647224 -16.400615   1.186751
Se   -2.729294  16.044072   4.501566
La  -10.743603  -1.504976  -4.465583
Sr   -6.124508 -12.955800  -8.174766
Os   -2.729355   2.641864  -9.933156
Fe   -7.828600   2.075471 -14.130893
Re    8.789123  19.162441  -1.907261
Dy  -12.650370   3.752529  -7.137407
Pb    5.620490  10.745138 -13.048819
Sr   16.940666   7.033434  -5.888388
Cs   -3.508230  -6.238706   5.517537
Li    6.687889   9.763263  -4.339232
Sb   13.089334  -7.694077   2.044862
Pm   -3.972000 -12.170782  14.292350
Cd   -9.383168 -13.345466  -5.403112
C    -2.379666  -4.994062   2.180915
Zr   -0.836753  -2.783146   9.399199
Pm   -9.962166  -5.260874 -10.258854
Li   -4.993278  -6.488407  19.523945
Mn   -8.943498 -13.106441 -14.003329
Ag    3.084122  15.504955  -7.471086
Os  -17.803834   0.110631   2.309095
Fe   -7.656702  10.610261   7.736652
Ag    3.189685  14.242321  14.011656
As   17.059204 -10.532903   1.212829
Ce   -0.606765  -3.802019  -1.924086
Rb    6.612463   4.995941   8.174518
B    -0.674866  18.796176   0.932331
I    10.180644  -2.783801  15.292347
He    9.319039  -9.558306  -7.976159
V     3.115485  -7.913981 -14.952519
Nb   18.524959  -4.483874  -3.312787
W     6.503870  -4.748401  12.721632
V    16.408284 -10.148980  -5.048032
La  -13.916785 -10.914534   1.333444
Zn    7.721704  -4.400353 -14.301852
I    -7.921935  13.370885  12.645897
Li    1.121459 -16.178135   9.972966
Ir  -13.807083   9.682889  -9.730091
Ba   -6.313613 -18.640238   2.082491
Pt   -7.043491  -3.719354 -17.763487
Ir    2.363618   5.638659  12.745995
S   -11.933622   5.170261  10.010521
Pd    5.270584 -11.706938   4.343189
Er   -7.830727  -5.916055 -16.157685
In   -0.721206   6.254689   9.686844
Cu    1.423116  10.514895 -13.749329
Be  -12.146493  -1.644520  10.656928
Na   -0.551624   5.307964  12.752492
Cd   -4.889199  18.314942  -0.782378
Sr    2.301102  10.427109   4.866255
V    -6.130991  -8.500217  11.046329
Mg   13.747773  -7.198872  -8.737937
Ag   16.776851   3.950923   0.160475
Mg    5.067624  -2.429432  11.575580
Dy   -3.211949  -1.919616  -1.240182
H     7.311468 -18.246895   1.786035
O   -16.287151  -3.007288  -7.415175
Sn  -13.066334  11.131666 -11.464686
Hg   -3.897869  -9.892516  -7.084157
Pd    3.725616  16.508436   2.331556
Ag    2.625305 -17.075276  10.071234
Cd    0.085339   1.874863   4.676943
Ge    3.663826   9.184556   2.423993
Cu    9.863731  11.662202   0.626915
Os   -5.039612  -2.253406 -18.184622
Pt    6.338602   9.675903 -15.825820
W    -8.325499   1.685407  -7.073059
Ru   11.868328  -3.145678  -9.069059
Ta    7.656296   3.879597  -0.731618
Ca  -20.224287   1.523780   5.891020
Eu  -15.375834  -5.013880  13.523190
As  -10.343936   9.743780   9.253429
Na   12.059747  -1.977573 -14.343569
Sm    7.634023  -0.425368   2.267517
Ho   -8.622279 -10.028249  -9.947297
Hf    9.454617  12.303194   5.141294
Br    6.345560   7.950906  12.629252
Hg   -5.725838  -0.091839 -15.801560
Dy   -9.448563  -8.151446  -2.903695
Xe  -13.021068   0.342068  -4.588814
Rh    3.420433  13.590444  -7.478154
Cd   11.437370  -7.051922   2.095012
Cr  -18.505698   4.417973   0.407834
Mo    2.520154  -3.974301  -3.395809
Sn   10.903754  -9.373173   6.516336
He  -18.528647   8.202540  -2.699673
Ca   11.711623  13.814471   9.587962
Ge   13.289896 -11.539402   2.762616
Sm  -19.157259  -4.576589   7.074318
Ar   -8.372690 -10.325058  -5.535385
Pm  -17.056873   7.682105  -9.825438
Ho   -5.515580  -5.733429   6.612265
C    11.512112  13.597753  10.935512
Re   15.848173  -5.593008  11.989971
Eu  -11.786619 -14.885959  -3.913844
Te  -10.540500   5.751800 -14.899867
Tl   -2.005937 -11.522816  -4.811416
Cu   15.795577  11.173285  -7.863708
Cu   -1.356039 -10.485753   2.607642
Mo   -3.424411 -14.022542   0.153391
Ne    0.751078 -18.215107  -5.367213
Li   17.497805   1.523470  -7.512478
Sb  -11.805896  -8.309233  12.258501
K   -19.543626  -2.913998  -2.905489
Yb   13.385676  11.815911   7.208175
Cs   -9.191905   4.654763   8.353843
Sn   10.407886   6.488734 -10.836850
Te  -13.245089  -4.645077  -6.550704
Xe   -4.371473   6.903432  -9.488034
Ni   -7.873455 -18.054531  -2.225749
Ar    6.465534   1.409558  19.427590
Hg   -9.198622  -2.151516   8.721396
H    12.897322  -1.886825  15.970541
Si   19.701367   1.959394   7.094622
Sm    9.221273 -12.371845  -0.696172
Hf   -3.413509 -17.471881   6.616906
Zr   -3.742808 -14.403902  -3.701083
At   14.170117 -11.741298  -9.072789
S     7.000737   5.008554  -3.460983
Mg  -12.061407   1.906631  -7.093179
Nb   -9.902415  -6.025281   0.360452
Be    3.405149 -12.021222  16.159425
Ne   -5.131388 -15.132420  10.133785
Mn   11.152947  -3.015162  -8.190079
Pb    6.989172  13.067872   3.169612
Re    1.328938  -8.726558   3.876974
Eu    7.765779  10.040417  -8.523487
Ni  -11.682282  -1.932693   7.463767
Sr   11.760570  10.684941 -11.269930
La  -16.020055  -4.855764 -10.444602
Mo  -11.348419  -9.098487   5.536820
Pm   -0.143074 -13.596544  -0.105495
Ni    5.685900 -18.143205  -5.436950
Au  -11.350197   0.296267  15.935230
V     7.684484  -5.417057   2.615272
Ag    4.636295  -1.415159 -15.210531
Ni    2.666286 -12.395873   4.566806
O    16.687464  -3.217503  -8.750814
Al    0.848368   4.011482  -8.690006
Te   18.727030   5.533590   4.388074
Tb  -10.350168   0.543716   5.447400
Tl    7.972322 -12.120898   2.288791
Ho  -18.003594  -7.597454   1.940912
S     1.070930   7.308711 -18.238626
Eu   12.643382   4.756028   6.722882
Ti  -15.331938  -3.963783   5.000456
As   -9.203257  16.323302   6.686541
Ni   -2.129265  -8.105496  10.467033
W    -3.557756   4.171542  -4.579060
He    1.530162 -18.823132  -0.510308
Ne    1.175245  -0.614447  17.541201
Yb   -3.673447  -0.402274  18.268375
In    1.974540  16.429463  -8.155772
Fe   -3.265617  10.908248  -8.976119
Rn  -13.144185   0.170109   0.560468
Br   -9.517903   1.067245   8.533168
Br   10.999073 -13.322342  -0.130618
Ni  -10.566408 -17.703263   4.844228
B    -7.541262  -6.778644  11.170751
Si   13.311435  -7.545301   3.147399
Ba  -10.811479   8.514727  -2.867907
In   -3.458251   8.828814  11.908215
Zr    1.881955  19.477968   2.309591
Ir   -5.110558  20.231350  -1.589069
Tb  -13.170536 -11.552618   7.841863
Kr   -7.058246  -3.935528  -2.218481
Eu    0.576567 -15.764876  -0.998772
Gd    9.486204   7.969832  -5.679438
Nb    0.063919  -7.460233 -15.823625
Rh    1.674336   1.205678   4.689385
Be    8.085906   5.569940 -17.513481
Tm    0.320074  -2.702326   9.977567
Pt    2.273798   7.048233 -13.343755
Ba   13.759281  -0.001450  11.317530
Ce    0.651241  -1.638122  12.357110
N    -5.690122  -4.736120  10.121674
P    13.274179 -14.395852   6.920338
H    16.093175  -4.456311  -5.400775
Rh   13.047098  -6.748860  -2.311171
As   -9.332972  -2.127055 -11.032201
Tl    9.018911  10.075387 -13.177710
Y    11.549292   2.834371  -5.815577
Hg    7.142777  10.647392   4.483979
Yb  -12.747549  -5.439447  11.464943
O     3.155872  14.721285  -5.067676
V   -12.293543  -0.605287   7.136320
H    14.834387   8.736036   7.657191
Mn    3.457943  -1.525229   8.554165
Pr  -10.821881  -0.002469   2.703292
Cr   -4.088541  10.368078   7.574264
O     4.848956   8.930115  16.751198
Cs  -14.713008  -7.647968  -3.983666
I   -13.379017  10.619655   5.489062
Nd   -6.033936   3.133998  13.319285
Mo    1.667716  19.246430  -4.587377
Nb    9.668158  -6.404902 -16.871078
Sr    3.496415 -11.669123  11.489256
Te   -8.441060  -7.531603  11.065441
V     2.916610   3.096438  -8.366154
Eu  -20.224968   5.319851   0.686968
Po   -1.476009 -14.438150   8.951792
Sm    8.442068   3.516538   5.942403
Pm   10.181697  -0.191921  12.664859
Ca   -9.377524   6.043282  14.777268
Pd    6.295142   5.655296   9.525259
B   -11.258749  12.775868   6.316257
Co  -11.874104   0.394795  -7.452259
S     6.286072   1.555446   4.687594
Hg   10.482888 -10.998432 -14.153043
La   16.232317   6.207921  -5.318129
Te   -4.592001  17.904596   5.204849
Xe    0.092594 -13.470366  11.912397
La    1.383912  10.620076   9.863994
Cl  -12.193945 -11.108128   1.120281
Ru    6.858609  -6.004359  -4.658144
Nb  -12.229773   7.415473 -15.532112
Rn   -2.069557  11.911609  -3.540906
Re    2.281576  16.774793   3.201942
Mn  -13.114113  -0.875232 -10.980621
N    10.015742  -2.052344  12.845957
Hf   -6.308291   2.213634 -18.030978
Cs    0.145320 -16.717910 -10.025283
Ce   -9.160205   5.505952 -18.044414
O    -6.991756   0.091889 -16.456232
Rb    3.147679 -11.569632  14.861559
Co   -0.231376  -1.958732   1.915205
Br  -15.118845   4.030588  -2.501274
Zn    1.124377  -3.929387  17.917453
Ce   -5.276797  -8.341843  -2.853984
Ar    3.284523  -8.841037  -6.916759
Fe   11.051327 -11.673442   8.937501
Sn    6.320981  -3.063499 -13.765307
C   -15.508682  -5.949866 -11.000437
P    -6.213197  12.814714  -7.114231
Rh   -5.554404   5.186770  -9.793175
B    -1.486936  11.605806 -11.137770
W     7.028250   8.231935  13.094714
Sb   -1.627971 -14.733872  12.173126
C     8.800504   0.373412   2.609583
Al   10.787214  -7.545666   8.233784
Ba    0.444766  14.509581  -1.017841
S    10.250260  -2.568524   5.833819
N     3.803740   9.363412 -17.013027
P     0.299191   7.381189   0.326258
Li    9.118677   6.234901  15.261565
At    0.987606  -1.126532   3.167778
Mo    0.518662  14.644806   7.990829
Ge   13.199174  14.767180   7.023670
Mg   -4.964529   1.499560  -4.739977
Co   -9.359828  10.572661   9.652910
At   12.884663  -5.885781 -15.257046
Cl   -1.369117  -2.135476   4.445696
V   -14.638368   7.581455   8.601060
At  -19.150639   7.217248  -1.183321
Sm    0.533079 -10.347310  11.100386
Eu   20.271544   0.267167  -5.119226
Pd    6.125040  -7.150879 -11.539830
Sc    1.087651  14.712289  10.010856
I    17.330380   1.599417   4.792737
B   -15.929171  -6.375293  -9.259719
Er   -3.175232  13.196819   2.730949
Al  -15.746901  -7.810036   3.126591
Ca   19.373396  -6.402034  -3.161392
Tc    3.546083  -2.574503 -13.881738
Sn   -3.675664  -2.391654  -6.187716
Hf   10.215559   7.661564   9.327557
K    -0.956844  11.861553  -8.152071
Re    2.685149   3.490291   3.557501
Ge   -2.496681  15.938064   1.984646
Nd   17.812460   4.990220  -9.780825
Os    4.121798 -13.362041  -4.256902
Zr   -9.644934 -15.146044   0.956940
Na    6.741030  -1.559743  15.945966
Ar    2.457652  -7.848431   8.258759
Ge    0.823312   7.611794 -11.187311
Nb    4.273942   4.874043  -5.020067
Eu   -7.230146  11.927113   3.819191
Ba   -3.780513   2.132287 -12.567526
Cr   11.026306  12.544485   3.346019
Kr   -0.855718 -16.491874   2.603292
In  -15.980867 -11.773915  -4.608661
Br   -9.200734   8.877966  -3.284814
W   -13.591439 -14.132839  -7.780509
Ba  -10.868856  -9.188373  11.197253
Dy   -8.970490   1.959177  17.098859
Sr   -6.937381   3.893810 -11.303821
C     5.405734  18.488934   3.187121
Cl    4.374506  11.050062  -9.511852
La   -4.495639   4.957950  17.581984
C     9.910996   5.043721   0.514118
Ni   -1.583562  -5.008607 -19.205155
Co    7.049115   7.243295   6.343823
Hf   -9.992623   6.823058  -0.416355
Dy   16.084165  -5.857248   3.892815
Pt   12.084244   1.909248  -2.177115
Cr    0.531881  -4.102893  -6.052603
S    -7.625489  16.228576  11.225975
Cr    3.155446  -7.144208   9.039184
Sm   -1.215864   4.568968 -13.753144
Ho    8.511700 -19.351971   0.509739
Mn    0.742610  10.480728 -12.650800
Ce    0.099694  -9.652415 -14.033035
Sc    3.586309  11.767157   9.993245
Os   -5.747993  11.281227   8.364137
Ca    4.932005   4.463541  13.787580
Ba  -10.321396  -5.925176   2.430099
Al    7.870832  -9.168240  -3.803925
Ni  -20.763009   2.976811  -3.006560
At  -16.180176  -5.054417  -9.144251
C     5.240502  11.613001  13.343518
Zr    2.942369  15.959359 -12.403360
Cu   20.040384   3.967338   5.073972
Si   11.189282  -2.758543 -12.915184
Mg    6.061599  -5.257347 -11.663887
Ta   11.157671  -2.056925  13.541400
B    -7.568037 -15.130958  -4.516019
Pd    5.984241 -18.194445  -8.269279
Ni   -0.524801   9.136228 -12.377045
Au   -3.573128 -10.823820 -10.734408
Sm   -7.865203 -12.256203 -13.407924
Ce  -10.680503  15.991134  -4.748290
F     8.904509  17.041133   1.283326
Mg   -1.274531  -8.209826  12.167566
Ce    4.011771 -11.641354 -11.936579
As    4.657094 -10.650526  12.575077
N     5.618360 -13.560228  -9.196478
I   -10.080053  -1.900001  -0.601005
Tm   10.884800  -6.262341   5.579430
Nd   18.570264  -1.220175   4.786679
Lu    8.975445  -3.823965 -12.850194
Nb  -10.605365   7.486178  14.536472
Kr  -10.162603  -6.092295  -6.158973
Yb   -3.600324  17.495635   0.278069
Rn   -3.264129   3.479113   8.854366
Ag   -8.735092 -17.515132   1.441575
Pt    9.197744  -6.774391  -7.351317
N    13.479427   6.741848  -5.352098
V     7.372483   6.156566 -13.321100
Cu   12.461181  -4.602224   3.945669
Cr    6.512808  12.965960 -11.378538
Xe   -2.293981  -2.655196   2.263337
Ar    9.138647  -5.295603 -14.621145
Sm    1.689350  11.911126  -5.100988
Br   13.150963  -3.326816   7.645016
Gd    4.761921  14.491722   8.966433
Ti   -8.098115   3.704067  -6.043181
Si    6.058692 -14.254717  12.584034
Dy    2.219268  17.071429   4.851651
F    -1.663826 -12.067176   5.184749
C   -18.389499  -7.570242  -7.231330
B    -5.429610  16.990957   7.256352
Ti   -4.259579   9.980409 -11.484130
Cs    7.199419  15.966669  -6.984420
Mg   -2.125525  -1.737438 -12.828809
Ru    7.491714   3.893648  -4.693801
Rn    5.845920  -4.247477  13.880062
N    11.986011   8.334187  -0.768701
F    -5.842802  10.548989 -12.047067
Pt   12.379690 -11.645993  -4.667205
Cl   -0.468987  -4.773404   9.683775
Tm  -10.541499   0.850401 -15.458025
I   -12.337528   4.016324 -10.750566
Se    1.470944 -11.929384   4.349501
Te   14.297456  -9.585891   5.461197
Os   -6.187031   0.927121  16.888985
F     3.772049 -10.684040   3.699411
Tb   -4.618747  17.385386   6.660277
Ir  -17.629573   8.648806   2.257201
Sm  -15.284190   2.967768  -3.474036
Co   -6.742107   1.807716   0.529143
In   15.504920   4.425703  12.237404
Hf   -6.707581  -2.287797  13.184521
Os   -4.608592   9.849049  -7.512561
Zr   11.322120 -15.173578  -0.903553
F    -7.579956 -13.405038 -10.216013
Br   -9.341822 -13.448636 -12.324857
Au    6.955647  16.311385  -2.831872
Rn    1.179024  -2.057839 -16.666605
Nb   -4.383283 -14.686825  -8.260327
Ru   -0.044805 -16.539128  10.665537
Ar   -4.155587  15.378491   6.565968
Zr   13.855405  11.286170  -4.177982
Cl  -16.635586   8.151362   6.017447
Sr    2.546902 -15.336481  -2.870790
Pr    8.063106   4.879541  -6.252069
Yb   14.065511  -8.409888  -2.361814
Hf    0.986653  -2.925363  -0.107858
Ru  -10.746270   6.094494  -7.298615
Gd    3.518022  -6.699261   3.869727
Ne  -17.758650   7.648079   0.073183
Cs  -14.417636  -5.533174 -10.128676
Cd    4.330766  13.850796   1.652302
Sc    6.357397 -12.445007 -11.643466
Ta  -10.152329  -7.085359  -6.128108
Ar    4.821719   9.295205  14.671727
At  -11.642917  -6.024370 -12.971224
Po  -10.526593   3.745480  -4.719057
Ce    3.932575  -7.258162 -10.434241
Hf   -7.652957  -4.075420  -9.617425
Ir   12.837220  10.390521 -12.716124
Ce   12.383162  -4.388744  -7.881576
Ge  -15.278202  -1.668191  -9.543777
Nb  -14.920289   4.940982  -4.140929
La    7.396903  12.214078  -9.156709
He    2.429376  -3.171553  16.914569
Po  -15.367913  -9.259660  -0.951552
Ag    4.528699   7.272916  -3.565430
Te   -2.341891 -18.557466   1.899499
Br   -6.799460  -6.471631  13.241851
Lu   -3.520090   8.217776 -15.609459
Au    8.587453   9.440577   6.313889
Ga   14.815948   8.019011  11.704827
Pr   13.272993  -8.340256  -5.135294
Sm    1.375746   9.189578 -10.918942
Pd    7.330169  16.898019  -8.163254
Ca    9.191538  -1.715710  -0.334616
Rb    5.678276  18.129623  -6.577280
Ho   -0.840392   1.038999 -13.071327
Hf    6.560727   8.772752 -11.959725
K    11.071476  -6.163767   1.648977
F    -7.303797  -8.097848  11.012854
Lu  -10.452932  12.643194  -3.128192
Pb    2.171477 -11.159644  15.849956
W    -8.461961  15.909265   7.429273
Pm    2.409893   2.025508 -13.743227
Ag  -14.195198   8.604404 -10.217686
Tl    2.235653 -15.734967  11.778301
Cd  -13.734521 -13.920423  -5.592413
Na    1.604571   9.939002  16.883189
Al    6.812420  10.306522 -10.872248
Pb   -7.498265  -6.224947 -18.297122
Zn    0.416462 -16.433211  -0.278281
Tb    5.175418  13.446210   4.911435
Te    3.805980  10.142588  -4.789358
Eu    0.816062   1.576880 -13.652057
Ba   -6.702887 -11.860139   0.271589
He   -1.893927   2.228990 -18.180675
Bi   -8.222824  10.899851  -2.500922
Ce  -11.549583   8.470752   2.822867
Cr    9.336164  -0.745987   2.173414
Rb    7.410871  -4.906644   4.379337
Cu   -2.292635 -13.921622   9.729373
Kr    5.969676   0.826373  10.817167
Pt   11.624599   3.251619 -14.230512
Ar   12.536439  -7.095157   3.229853
Y    10.714525 -12.410009   4.879480
Sb   -5.454532 -15.680298 -11.627842
Sr  -19.869446   1.901186  -3.134523
Cr   14.568325   1.856122   5.200097
Ta   -0.296908 -10.241103 -15.825358
Sb    3.742975  11.404390   2.424650
Sm  -16.359091  -1.631615 -10.716705
Er   -8.139391 -11.202814  -0.793841
Tm  -13.817382  -5.448069  12.409525
Nd   -9.153293  -5.368177  11.301663
At   -5.953086 -11.980208  13.656228
Cs   -0.964445 -17.131859  -5.559708
He  -16.323734   2.593741 -12.520160
N   -13.987764  -8.019756   6.980716
Ta    2.059003   2.502865  -0.485466
La    6.287898  16.186714  -3.838816
B     1.413989   1.008927  -5.808527
Pm  -13.880601 -13.345157   5.724347
Er   -6.707882 -15.968357   9.524352
Nd    7.631825   9.837033  -6.905243
Ta    6.289121  15.023183   0.928418
Te   -0.470782   0.053954 -11.873318
Ga    9.098974 -18.512828   1.945082
Cd    1.587919   0.502428   6.574425
Cd    4.684924   4.213466   0.476260
Ce   -2.481644 -12.532794  13.568304
Sb   -6.250014 -12.754243   7.719085
Br   -5.132633  -3.946837 -15.283788
Ar    0.823245 -11.719898  -6.460269
Zn   -9.761327  10.216377  -6.048504
W   -13.034265  -4.114578  14.854530
Sr   12.189973 -16.687925   2.040560
Sr   12.714414   1.884448  12.199587
F    -9.613985   4.730233   5.947979
Dy   -3.711644  -2.726679  15.178228
Tl   -3.800322   0.169857  -3.713414
Ir  -13.399622   4.751815  -4.255811
Ga    6.139383  -0.533560   2.580144
Cs   -3.976459  13.651786  -0.941530
La   -5.281309  -2.573469   1.594029
Mg   -2.963492  -7.056596   3.808849
Mn    5.206561 -11.528411  16.594308
Ni    2.377054  -4.734333  14.034122
Zn  -12.378181 -12.139549   1.219968
C    -7.455704 -11.448071   9.998317
Ga    1.744697   7.008970  -3.247040
Nd  -16.300547   9.739415   0.129236
Eu   10.007502  15.094653  -5.450588
La   -2.615491  -6.287826  -0.479822
Rn  -13.710003 -11.379778   2.715210
Zr  -10.731687  -1.110702  10.957556
Re   -7.779916  -1.264572 -15.848157
Cl  -17.607733   6.645305  -0.957850
Zn    5.169489   2.968545  -5.852985
Sr   13.103536   6.620386 -12.875399
Re    9.387984  15.304039   1.201024
Br  -17.654963   4.204447  -6.539254
Si  -13.669944  -6.592350  -7.588566
C   -17.960994  -1.488166   4.384472
Gd  -14.654866   2.644766  -2.659346
Ar  -17.426379  -4.465158  -4.315813
Tc  -10.089397   7.273209 -13.608263
Gd    2.236292  -9.070914   9.330779
Cr   -1.746385 -17.781550   6.354898
Pd   -8.291417  -9.831271   6.509187
Mn   -4.967507  12.830934 -13.248673
Cr   -1.401086 -18.683643  -7.697470
Al   -4.615940 -10.351115  10.758823
Os  -12.709167   8.652134   5.737934
He   10.006170   5.690385 -11.610026
Sr   -6.944410 -14.130988 -10.217209
Al   14.870469   4.914362   9.993393
Cd    1.862323  -3.180786 -18.125649
F     4.870436  -7.776488 -14.195084
Pm   -5.457580  -7.555572  11.771687
Ge   11.064367  -9.039253  -9.442111
B     5.715181  -3.240221 -10.882893
Nb    3.954869  -6.195167   2.898895
Ne   -1.453239  15.933021   1.448883
Hf   -3.013224   2.824798   4.230316
Xe  -16.819361   4.351552  -4.489270
Ga    0.088661  17.832769  -3.378780
Cr   10.549229  11.785002 -13.439175
Er   -5.720272 -11.854344  -9.089683
He    1.567223   9.012500 -11.838211
Fe    4.066807   2.098813  -5.944087
Ba    7.550023  -8.865122  -1.338858
C   -16.162644  -9.189717  -8.610247
Yb   16.621241   5.870836  -9.436584
Nb  -14.382456  -3.403099   3.984827
Li   -6.288149   4.426651 -14.797402
Gd  -12.492249  -4.057941   4.019424
Si    9.907411  -4.702748  -6.905404
Ho    4.792191   1.196842  12.144126
Ru   -9.822499 -14.666653  -3.727406
Ge  -11.522141   6.246274  -4.089116
Sc    7.324780   3.269818   2.115613
Ca   -7.577522  -9.582543  10.519076
Br    7.028438   1.495564 -14.361552
Br   -0.627003   9.202061  -8.592626
Se   -2.831880  -7.002354   6.149400
Tm    3.282451  -1.660704  11.851134
Ta   -0.388103  -7.845122   2.740863
F   -10.825396  13.931220  -6.267235
Si    4.523195  20.663103   1.460949
Li  -10.806385   0.497066   1.843766
Ti   10.970651  -3.542271   6.827510
Ge    2.530680   5.382849  -7.548631
Lu   16.453392  -2.668809  -1.110259
Te  -13.767754   2.469440  -9.939721
Bi   -6.080799  -9.640412   4.286181
Eu   -2.133571   3.267322 -12.433728
Nb   13.304032   9.626112   7.726412
Pd   -7.678392  -2.858992  13.776374
Ga   11.535268  -9.929022 -14.746126
H     6.942429 -18.296552   0.327890
Mn   13.188266  -8.469383   4.089702
C    -1.624720  13.836542  11.926289
Ne    0.954636   5.009747   4.900518
Ge  -14.454810   2.075011   0.342993
Li    8.189531   3.845271  -3.950731
N    14.729107  10.610648 -10.924827
Rb  -13.180464  11.089982 -10.520668
Po  -15.315787  -1.027109 -11.780623
Re    5.525572 -10.073682   8.223845
Yb  -11.381658 -10.976242  -2.474145
Co    9.719243 -13.329251   4.229516
Eu  -14.632807  -3.229611   8.277677
Mg   -6.045322   4.573641   9.593944
As   -1.149582  16.175283  -8.558518
Nb    7.166373  -8.290188  -8.574142
Hf   12.047502  -0.186469 -12.853920
Co    0.663805  -4.912201   4.811054
Si   -8.971572  13.701010   0.168524
Sr   -4.853072   6.341575   2.157068
S     4.703390  12.157450  11.780861
Pm  -11.694195  -0.208103  17.331275
Ni    3.950323  16.293239  -0.297720
Ni    9.929555   3.036233   4.036131
Nd   -9.030954   2.862617  17.392055
Ni   -7.411606  -4.935859 -15.168844
Hf    0.980355   8.782407  -9.227468
B     7.727529  13.283052  -4.855546
Dy   16.751964  -5.099818  11.162220
Tl    4.784989  17.262656  -7.793762
Yb   -2.540381 -11.697625 -10.708565
Os    1.803465  -2.593954  14.433552
V     6.211248   5.604285  11.627939
O     2.206915   3.163005  15.086240
Mo   14.911463   6.723350  -3.570540
Te   -1.152314   9.713627 -11.916332
Sb    1.040077  16.383799  -1.660430
Si   -5.807242  -7.315493   5.354095
P    -8.713138  -8.766405   7.647022
Pb   -1.831720  13.712266  15.734399
Mo    4.837628 -12.284028   6.295113
Lu  -12.157504  16.532368   2.074702
Sr    2.104150  -7.417487  -0.823293
In   -8.491678 -13.543470  -4.957635
Ba   -7.767373   1.316715 -11.882237
In  -13.941749  -7.220355  12.147340
Tl  -12.906734  -8.920479 -12.845091
Kr    6.261083 -11.881144  -2.561079
Au   20.373640  -4.002532  -2.009608
Cl    9.190306  14.229971   4.403632
As   -1.270505  -0.238745   8.567660
Ga    1.322951  -1.135965 -13.365740
Y   -13.741471   9.476018   1.874882
Yb  -14.224328  -7.033261   3.382635
Eu    4.991165   8.750685  17.535165
Be    0.438821   0.333709  10.731129
I    -1.982534  -1.583996  14.715956
Rh   13.314166  -6.133556   3.625265
H     2.668251  10.282286 -17.702032
W     4.962676   4.867266  15.658037
Os   14.575234  -8.884408   6.269455
Ce    8.113090  -1.066149 -17.827161
Ga    0.753619   8.836810 -15.253239
Bi   -9.508870  -0.779322  18.454093
Au    3.316427   0.756715   1.745329
Yb   -4.328648   7.283648 -13.348796
Br   -2.572019 -17.306638   5.615852
Ba    3.967975  11.633962  15.139365
Gd   18.042786  -2.843526  -3.814781
Pt  -12.979358  -3.122695  -9.017754
Li    1.364917   3.707336 -17.170813
Zr   -2.675366   2.093622 -18.998403
F   -16.973934   2.405711 -10.116057
Zr   -5.127176  11.940200  13.735517
Zn    0.792767 -18.206843   8.458768
Ir  -10.071245 -14.967747 -10.574130
Nd   -0.992240  -9.229317  -7.126774
Ta    7.323240 -10.751902  -8.167111
Ar  -15.989730  -4.918499   6.750301
Y     6.399756  -3.305414  13.142073
As    0.638801  -0.545908 -20.762081
Pm   -8.001459 -18.675266   4.488370
Dy    9.821549  12.040493  -6.654561
Fe    8.554601  -3.857822 -18.880614
Ir    4.184738 -11.771362  -0.630883
La   -8.366646  -1.951933 -17.645695
Re   -8.141823 -10.927135   3.563502
Sm    4.491786 -15.599870  -9.731257
Re  -15.961243   3.262707  -1.390423
Co   -8.186543   4.568415  10.055751
Nd   13.989226  -4.460414  10.038516
Te   -5.330507 -19.670864   1.573225
W    -0.014410  -5.903933  11.543715
S     4.199537 -20.374207   2.980542
Gd   13.571705  -1.157215  -0.467761
Kr   -9.992768  -8.766791   2.837713
Hg   -3.222615  19.337429   3.456138
Sc    5.500851  -4.386847   4.303853
Lu   -2.088929 -18.972206   8.082916
Au   18.240233  -1.619226  -7.223092
Ba   -0.924858 -12.437741 -11.335632
Sb  -17.070716   5.560547  -8.357365
H     9.891451  -2.210366   3.066269
Ge    0.952935  20.283782  -4.243407
Sc   -8.667807  13.789831  10.205801
K     0.103401 -19.271677   8.480759
F   -12.110326   6.158324  15.804147
Tm   14.910527  -7.490857 -12.973145
I    19.605873  -3.024761   4.858631
I    -7.607008  14.401143  10.979470
Tl    8.559085  13.109737   9.266550
Pr  -10.096737  -4.066445   7.219953
Xe    7.471777   4.874766  -7.341994
Si   -9.410928  -5.410989  -3.926701
Se  -17.021658 -10.325606  -6.664436
O    -6.075570  -7.450494  -6.387657
C    -2.497323   4.620476  14.245718
P   -10.572016  -2.334344  -7.199549
B   -11.263311   4.227908  -2.129896
Li   -5.767889   6.186587   6.009983
Pm   -2.452296 -16.346667   1.396807
Li  -15.274167  13.218777   0.346797
Tm   18.279163   2.435778   0.441746
Mg    7.589024  -0.387720 -17.048311
Cs    0.895207  -1.699994  -4.037214
Ca  -11.974759   5.480568 -10.937352
I    -4.853231   5.634476  11.693103
W     3.569008   3.361286 -10.142906
Tl    9.129790  -4.131794 -18.272291
Zn  -15.100221  -8.766153   0.949744
Au   12.241094   3.706252  -1.409334
Cs  -13.733677   4.087520   0.119419
Dy   12.497470  -5.053371 -15.827815
W    -3.310225  -5.776946   2.239953
Pb   -1.889542  -9.862163 -11.319642
Pr   -3.006771  -7.508883 -10.163658
F    15.141672   1.853416 -11.229741
Mn    8.197076  -2.351925 -11.275525
Pb   15.031882   7.776325  -6.043205
Hf   11.969447  -3.563026   9.414578
Tc   -0.894084 -11.615978   3.204433
Kr  -13.127657   9.959850   4.875424
Zr    3.035537  -4.608563  -5.459668
Tb    5.798089 -17.057425 -10.209817
Sb   12.546478 -15.480318   4.991576
Tm  -12.074156  -8.060012 -14.146202
Pt   18.785837   3.199028   6.856324
Sr   13.144191  14.487170  -6.364506
K   -16.274652 -10.916850   1.278159
Cu   10.792285   5.801822  -8.799016
Nd   13.579572   2.857098   7.648253
Sn    4.614336  18.740684  -5.431324
B    14.412170 -14.127283  -4.642183
Dy   -5.874642   1.061113  15.494004
Mn   16.473276  -3.689355  12.417759
Mn   -7.601539  17.378549   9.371048
At  -12.946769   9.246489 -12.048495
Cd   -9.928756 -10.875294   0.311423
Nd    6.795205 -12.601610 -10.426859
Sc   -6.355009   9.231115 -16.850608
Lu    2.588607   3.642823   6.970624
Xe   -7.448728  19.068235   0.325000
Nd    8.411093   1.013390  -7.621281
Hf  -17.175585  -3.316359   1.674006
In   10.203241  -6.239262  -2.598247
Pb   11.035982   6.332491  -0.102072
Ga   13.357222  -5.178592   3.152436
B     8.652728  -7.752063 -10.001888
Au    1.634064  10.332746   1.112964
Pt   -2.193721  -7.479936  17.163603
Pr   -7.478184 -10.450017 -11.273192
Tm   -7.087704   6.547375   7.242958
Mo    5.217748 -13.208528   9.418123
Zn    1.152422  12.165825  -9.827833
I    11.082507   5.495890 -14.658418
Ne   16.096771   6.666143  -8.376696
Hg   -3.283350   4.977157 -16.634001
B    14.344899   2.216309  -9.154337
Tl   13.064295   8.012238   0.809217
Ne   -3.403270  14.412304  -1.177249
Lu    1.597556  -8.450634  -2.168596
Nd  -12.251923  -8.235494  -6.437184
La    1.670352   5.933183  19.843688
Po    8.498275   5.356028  -3.389427
Fe    7.672579  -3.271145 -17.561159
Ir    7.414133 -12.836380   7.199385
Hg    1.787040  -9.260431 -12.574357
Ga   19.448282   6.456293  -4.499756
Cl    6.356153 -16.606959  -6.371708
Ta    3.626528   7.483921  -7.121039
Pm   -1.952763 -13.370439 -12.146045
S    12.042080 -15.776616   3.393026
La    5.247485  -2.022224   0.733723
Cs   15.298944 -10.243516  -5.860767
Rh   14.431695  11.513239   4.067846
As   -8.753454  11.556000   9.821331
Nb   -4.928559  -6.580842  11.285373
Zn  -14.617989  10.290188   3.190853
Ce   -8.062709 -15.861926  -8.944497
Ti   -3.165473  -5.320063  19.304817
Be   18.290290   7.220696  -6.859501
Cr   -2.464117  17.270080  -4.063163
Rb   12.244942   3.505917  -7.300892
Mn  -11.245063   9.984939  -2.839671
Pm   -4.611474  -9.530502  -2.937532
P    16.750892   9.924270   2.925221
Be  -17.246151   1.856761  -7.923803
Pb   19.312737   6.055327  -2.651865
Xe   -7.973208 -12.891894  -0.706501
Mn   11.269168   9.473263   4.048943
C    -2.057840 -11.788892  14.662372
Mg   14.787217   1.530160   4.011302
Zn  -14.064621   4.349429 -14.194031
Os   17.830854  -8.404641  -0.879889
Cu   -6.592057  12.611899   2.327272
Sc   14.581420   4.519974 -13.706180
N    15.270401  10.814633   5.375469
Cd   13.349849   3.458482   0.258042
Pm   -4.359360  14.865197  -7.291465
Hf  -11.201768  -7.938677   4.797457
Na   -4.976487  15.856607  13.075689
Co  -11.353407   9.374219 -10.212447
Fe    7.718674   1.701827   8.326912
Pd    3.133807 -13.874655  -2.580375
Ta   -4.621219   0.917824 -20.614676
Tc  -10.517156  -0.843131  -5.574281
S     9.194121  -9.806071  12.059452
Cr   10.672203  14.022256   7.950814
O   -11.238952  -6.035823   9.715191
Sm    5.447000   8.977092  -1.006831
Li    2.056699  11.153981   8.235689
Ar   -7.732965  16.284732   2.517900
Os   15.471105   9.606833  -3.420333
La   -2.214488 -16.895141 -11.106739
Yb    4.758923 -13.076925 -14.020548
Hf   16.365208 -10.846913   6.064548
Kr   15.384664   3.706294  -0.905915
Xe   -4.542354  12.229591   4.916671
Mo    5.280339  19.923812  -0.441153
Yb    4.153675 -10.371787   6.571490
Au  -11.103182  -4.469543 -11.088173
Hf   -3.590200  -5.268052   5.270870
Re   10.700696   3.500776   4.812844
Si  -17.613464   6.422771   9.586059
Sn    9.916114  -5.527720  -7.779573
Hf    9.900297  -1.735927   0.783161
H    -2.732108   0.559791  -5.087804
Ag  -18.488593  -3.512194  -9.106600
As   -9.228924  -4.784034 -15.886466
Sm   -2.606389  -1.674305  15.433960
Ga  -16.095790   4.831806  12.143616
Yb    4.573226   0.305064 -18.134256
Ca   -3.208233  17.136805   8.394800
Sn   -8.573807   7.720228  14.304349
Fe    2.099896  -8.537879  14.675751
Tm   -0.655929   1.315247  17.563070
Ca  -12.405619  -9.515078  -9.821205
Ni   -7.024260  -6.358106  16.408635
Na   15.348650  10.448168  -9.463665
Ca   -6.640543  15.963386  -6.116995
Mo   14.006562  -2.434258 -14.741605
K   -13.725538  -4.118404 -10.018961
B   -10.837233  12.099900  12.933417
Tb   -8.692082   0.375576  13.204885
He   -8.119846 -17.143087   9.147010
Hf   -9.892051   2.424649  10.242838
Mn   -5.545109  -7.796345  -5.219349
N   -11.324419   2.219463 -10.593102
B     5.643601  -6.311375 -12.198839
Be   -8.215408   4.291715   8.040739
Os   13.408876 -10.802112  -2.062369
Rb   15.276937  -8.295311   9.829935
Nd   17.758751  -4.256724  10.502746
Ga    8.092608  -6.419186  14.578072
Ni    7.570158 -13.530164  -6.095397
Kr    0.187653   4.773045   5.961195
Mn   -8.804307  12.438017   1.868605
Re    9.954314  -8.212131 -10.193228
Cl  -14.666795 -12.378830   3.041152
O     5.445165  -7.607025  13.252271
Ca   15.373846 -11.418110  -3.478761
Zn    5.704138 -12.598757   2.383585
K    -5.394405   5.522968 -16.551734
Tl   -9.702243 -12.469089  -5.384304
Os   -4.890702  -0.711624 -17.576866
Ru    1.367750  -0.412662  13.984556
Nb   -1.781348   0.002779  18.346332
Pr   -9.159244  -7.457084  -6.806345
H   -16.591753  -3.028040 -11.738538
Rb   17.528372  -1.343368   1.292060
Sb    5.962131   5.497369   6.342591
Se   12.954090  -1.361000  -7.246650
Tm   15.409226   1.898831  -8.102854
P    -6.148823 -18.426611  -7.440843
Ga   -8.670189   4.006349   0.063981
Na    8.462240   1.634850  15.792475
Mg   10.486301  -7.489993 -13.356271
Pt   13.809190  13.240107   1.985536
Hg    9.876424  -7.361145   7.262760
Ne    8.310189   0.213993  15.918331
Cr   12.370201   1.168020  13.074679
Cu   10.519611  13.759622   3.086672
Ce  -10.900540   3.959413  13.289383
Ga  -13.391302   4.453012  -7.312000
Rh  -13.042482   2.947621 -10.581589
Ru   -7.065135 -13.720033  -8.796433
O    13.698068  -2.404061  15.741818
Zn    8.364817 -13.243628  10.490275
Rb    4.209147  10.824683 -14.366392
Tb   -0.947577  -8.425375 -16.029141
B     2.290356  -3.530657   3.944312
H    12.575633  -4.881475  -4.023500
Tb   -8.301623 -11.126441   2.610600
B   -16.028878   5.832429   9.620318
Os  -12.634424  -3.782890   6.753130
Zn    1.042839 -10.721576  -2.500935
Cr    0.754937 -10.564242  -7.337453
Tc    5.417220 -16.422984   5.216584
H    -0.130980  -5.361703   1.182157
Li   -2.341755  -0.285277  -0.394873
Ce   12.385902   1.904838  -5.300984
Si   -7.027101  -8.309327   9.602329
Se  -10.331961   8.918282 -12.482668
Pt    9.859417  -2.999616  10.208650
La   -8.955191  -8.865847  -4.093256
Cs   17.958342   2.538223 -10.940588
Hg   12.648454  -3.874140 -10.641110
La   10.682200   5.732547 -16.861063
W   -17.556714   8.289544  -1.009492
Cl    8.204858  -7.649908  13.851823
I     1.736781  -0.557503  12.520586
Ba  -18.021279  -6.439250  -2.533479
Ru    1.314862 -16.760481   6.067797
Pb  -12.221872  16.952340   0.567503
Ag  -19.885785  -3.734559  -0.947344
Rb   -9.406128  -3.731456   3.123181
Sb   11.483673   1.368214  -2.274047
Tm  -12.858478   3.423575  -2.726326
Se    5.418110   3.819530  11.982202
Br    0.728531  -7.237750  -5.593226
I     9.203162  -8.923836   7.271806
Xe   11.948374   9.789365 -12.790376
Sr    6.386216  -4.780923   0.750673
Xe    4.028492  -4.128128  12.307298
Ca   -6.826597  -8.572764  -0.607667
Al    0.512463 -17.189730  -2.235364
Ru   -0.731000  -8.094916 -13.770447
Ru    9.838283  11.482981 -13.173481
H     8.175351  -3.974381  18.330890
Eu   11.539677  12.686605  -5.518307
Y     6.170425   1.288960  -1.444386
Cu    0.546575 -20.127068   6.309164
He    0.653634  -9.543998  -5.676384
B     6.154127  -7.412396  -5.362275
Rb   12.823013  16.359678   3.724686
Te   -6.531127  -3.143021  -7.948754
Au    9.998082 -10.208701  14.297804
As  -13.277984  -1.934800  -4.159704
O     5.519946  -4.097944   9.064829
Cu    2.072614  10.032745   2.109722
Kr  -18.640509   3.289418  -4.887295
In   -0.031236   0.179948 -13.812697
W     6.373739   6.919821  -1.757622
He  -15.226829   5.782436   4.736666
Mn    5.482315 -19.945369   0.032789
Ru    7.890694 -11.941179   3.421089
Rb   -3.259106  -6.501120  17.469235
Sc   13.280995   0.374424  -4.233813
Tc    3.601963 -11.710968 -10.440140
C   -10.537222  16.102859  -2.262384
Ce    1.033827 -13.487629   0.234397
Ti    2.303423   3.416547  -0.455054
La  -14.544069  -4.516059  11.622831
Lu    2.544028 -14.447670 -10.186864
Ar   19.711083  -0.699208   1.994689
Zr   18.067363   7.057915   3.122179
Cd   -1.808562  -8.486439 -10.601830
Ge    5.733349  18.433036   8.789653
Hg    7.405144  16.936073  -7.311446
S   -12.742699   0.840405 -15.124692
Kr   -9.483258   5.880805  -7.403913
Fe   -8.762922  -7.801465   3.246424
Mg  -10.749317  11.155599  12.142237
Rn    8.635802  13.266455 -13.160442
Cs  -10.698876   9.235949   0.007958
I    -1.780869 -14.713011  -2.497046
V     8.968123  -9.022783 -14.859987
H    -6.184705  -6.197211 -11.839836
Yb   12.810609 -12.788670  -0.196522
Pb  -12.057637  -1.524150   6.359303
In   -5.433539 -12.790326  -9.629366
Ta  -12.620744 -12.292248  -2.920393
Po   -1.031675  -8.592590   1.275540
N    17.144005   2.412087  -1.974853
Pr    0.914694  16.968157  -4.978786
Ti    7.871036  -8.088783 -10.611981
Co   -8.146688 -12.631040   5.832283
Zn   -7.244496 -16.053024   0.055317
Cl   -0.522548 -20.086630   5.665556
Dy   10.094742  -7.916679   3.814809
B   -13.488717  -0.230553   8.268918
Rh    7.519030  -8.023692  -0.301646
Pr    5.549300   3.492542 -11.135848
Cd    8.462523  11.605012   1.914508
Gd   -0.867441  -8.890270   9.921400
Ne    8.926685 -18.855937  -0.928052
K     4.113408  -6.718645  -0.210789
Cs    2.666434   0.256757   0.286341
Xe   -9.999034 -10.679951  -2.730684
Ga   -1.034718   3.202827   3.609796
At   -0.962815  -1.601784  16.343924
Ag   -0.078498 -15.342678  13.791769
S    -6.953940   3.920011   9.856665
Ag  -12.478201   5.543854  16.187171
Tm   17.728246  10.653015   4.629227
Si  -18.081963   4.030269   8.745420
Cr   -0.975924  -8.747015  13.535645
Hg  -10.196826   9.622506   7.350731
Os    3.529254  -5.831442  19.265552
Rn   15.694967  12.238371   0.380896
Yb   -6.303040  15.909712 -12.425589
Pd  -10.174815  16.192748  -3.692858
Si  -14.924005   8.083249  -7.309694
Sm    0.918004   7.635710  16.403136
Ho   -0.264173   1.099482  14.254629
C     1.563591   1.566165   9.401262
Ta   -0.949530  -7.410869  17.243891
Hg   -0.280670   1.344435 -18.072994
Ge  -17.242580  -6.372856  -4.455543
Au   -7.172956  12.091755 -15.885557
Nd    6.208712   4.266677   1.493477
Au    3.299727   8.503070  15.010934
Nb  -19.729923  -2.073841  -2.149986
He   -6.748603  -3.096895   2.850109
Er    2.226795  12.013956 -11.523058
Nd   -0.575564  -9.139355   4.556029
Sr    1.485079   0.456139  -0.997841
Tm   12.615746   6.300364  -2.151585
Pm    9.772960 -17.461190   3.868619
Cl   -8.468845   5.833415   9.703340
H    -9.036320  13.692673 -12.056769
Tm  -10.341179  -7.257826   9.341675
Pb   -8.650753   9.023132  13.456067
At   -9.160605 -13.741648  -0.876566
He    2.386180 -12.496961  15.056410
Sr    5.589660  10.002283  14.733682
Ne   12.935823   1.653638   1.620956
Na    9.029405   2.187443  -4.471096
B   -12.743481   4.668508 -14.361147
Po   -1.412898 -11.682603 -15.924208
Pb    3.856145   6.644009 -17.137068
Nd   -8.133657   5.919234  -8.031542
Os    3.950040  -6.409148  -9.797821
Po   18.204054  -0.092446   6.692075
Ta  -15.331068 -13.608871   3.539600
As    6.696724   4.019632  -6.807472
Na    3.812285  17.751589   5.162663
In    5.967960  15.566339   4.035633
Y     8.589837  18.421694   3.354479
Eu   -8.837271  -6.855917  14.972197
Sr   -3.901457   9.632878  17.533529
As    8.475503  -1.694193   9.667657
Be    0.526257  11.769172  13.212132
Pt  -14.417169   3.935401   9.000448
La    2.032138  -8.716982  -8.525153
W    -8.035764  16.203899  -1.365836
W    -3.336147   2.619370  13.786610
Xe   12.428000 -11.492270   4.932410
Yb    7.917826 -10.672607  11.690614
Mo   -5.351032  -0.151063  -1.695432
Cr    9.905755  -5.761203  17.595219
Tc  -12.244277  -6.347477   1.895466
Ir   -8.754266   9.479891  14.223212
Os    1.278997   7.270320 -12.261156
Rh    5.173491  13.991578  11.490512
Po  -15.744557   9.694250  10.324604
Pt   14.306417 -12.781239  -0.429538
Rh  -10.152580 -10.941471  -6.280457
Li   -0.353996  -9.693322 -16.935876
Sb    8.906295  -5.191923   8.061192
Xe   11.458448 -10.540317   7.820236
Sm    8.444397 -13.874098   5.525556
Nd   -2.761814  10.675543 -16.050094
Pr   13.024519  -7.143333   8.488418
Ho  -16.498193   5.222502   2.407061
Ce    7.807742  -7.282713  11.327472
K   -13.925597  -4.486044 -15.344590
Hf  -16.211179  -2.076612  -1.282791
Fe    4.087407  -1.633527   9.546854
Nb    0.039176  -5.158103  12.958273
Ge  -10.788438  -9.761503 -11.926546
Hg    9.772322   3.433642  -4.513971
Sn    4.228786  -3.072835  12.619479
Nd   10.912673  -4.872500 -13.226411
Nd   -6.363472   5.727988  -6.338433
Ho  -12.749500   8.056807 -11.694506
Xe   -6.903990 -16.162140  -7.298474
Li   -5.156980  -4.659129  -9.211058
La    2.417987  -1.382738 -13.034900
Na  -13.910200  12.744919   2.862802
Cu  -13.738249   1.904620   7.901094
Ag   -3.855872 -11.368006  -5.625958
Rn  -11.081028  15.008641  -8.770231
Co    1.960192 -11.118300 -14.694856
V    -7.932971  12.419822  15.132820
Mn  -15.400912   7.589753   7.297128
Ba   -7.358794   0.304988   2.044844
Xe   15.001335  -3.333932  -8.509775
Be   -3.154273  -5.155019  17.041008
Rb    3.623782  -5.474837  17.795275
Mg    8.672186  16.713843   4.436058
As    3.315765  16.417625   9.903066
Ta   -7.269279   8.397169   2.249152
Be    1.144798   4.783338   3.133044
Kr   17.655320  -1.920226  -1.032699
O    -4.518658 -11.975229  15.548329
In   -9.400078   1.138508  -1.479758
Sm    8.990918 -10.656311  -1.326366
Na    3.458212  18.334547  -6.323059
Sn   -1.229615 -13.888328  -6.450509
Ho   -5.624572  18.380587  -1.109003
V    -9.681016  15.949773  -6.817909
O     5.141241  -3.793025 -10.105374
Tm    5.792902   6.497697   0.334518
Xe   -6.863874  -9.310271   4.280416
Te   17.764175   1.553303   8.888337
Rh   -8.877993  -2.177656  18.446331
Si    1.810426   3.146688 -14.318166
Sm   14.311431  -4.609144   0.654077
Ti   -0.188692   8.517175  10.947270
Pb    6.950549   7.438088 -16.696585
Se    1.474389  -1.558604  -4.635626
Ag   -3.191892   0.165843  11.002322
Pb    6.169511   1.957544   9.578478
Ho  -14.518663  -0.301846   7.748675
Ga   -3.917562   6.415991   7.367719
Y     2.974918   6.313748   5.873469
Zr   13.478681  -2.438748   3.957180
Y     3.482302 -11.187157  14.195682
Ho  -15.078670  -5.925818  11.881015
Ir   11.714135   5.686971  -2.803485
Cs   -9.781539   6.878081   5.938831
Ag    2.081958 -14.522183   4.858941
K   -11.734574   1.962921 -17.007885
Rb    3.405521  -0.754121  12.407521
Mn   11.189875 -12.555377   2.190087
Au   17.857275  -3.773624  -2.722081
Re   -4.236293   9.763184   5.708952
Sb  -10.302140  -1.023248   3.351395
Co    5.744724  -7.734285   6.796445
I     8.900006  -5.092450 -18.418160
Os   -6.063938 -18.306570  -0.726887
Rb   -1.711861 -17.530360  -8.766229
Rn    0.489490   7.923158   6.732039
Al   -4.074486 -19.807376   5.168753
Eu   -9.570898   0.437986  18.530355
O     6.415277  10.918536  -9.935818
Cd    7.791771  -7.607532  -3.844774
Kr   -8.340857  -0.035189 -10.881712
Y    -3.928082   8.883643 -17.108490
Ti  -16.680433  -1.418294   2.445768
He  -10.088325   1.827230  -2.044814
Hf   15.565188  -6.040872   0.390532
P    -2.798994  -8.300594 -19.102027
Cr   -5.249188   0.982577  12.857024
Rh   -0.030640 -14.507751 -13.340508
Po   -7.050483 -13.486566  -6.675576
Rn    9.937732   1.752930  15.195939
Tb   18.225556  -5.749112   6.709451
Al   14.475467  -6.303492  -7.343915
Zr   -0.407348   5.482728 -18.669873
Bi    8.168439  -4.265164  13.819268
Eu  -17.834704  -2.147817   5.687963
Ga   -3.603449   1.247785   7.652484
Sr  -10.011461  14.805143  -3.595926
Sn   -9.258892  -3.815162   9.213600
Pb    6.844702  18.427155  -7.480468
Sc   -0.151571   3.122595 -20.091927
Sc    2.713501   1.051362  -1.521101
Zr   -2.811433  12.563439   8.210557
Se    3.029958  19.271239  -3.963384
F    -9.156953   7.176691  16.176623
Tc   13.268700 -11.968836   8.412922
Ir   -2.787508   0.602129   9.361826
Ir   -1.253373  -2.700146 -12.042342
K    -8.964311 -17.322040   4.866084
Li   -9.298219  -4.309170  10.301984
Br   15.589524 -10.297166   1.184472
Au   14.763842   5.539294 -13.060107
Nb    9.032022   9.005549   7.104490
C    -4.240872  -4.537241 -18.699471
Cd   -5.251905  -1.683961  -1.516168
Tb  -13.942184  15.407211   3.586167
Sn   -9.808506 -16.384432   1.285671
Rh  -14.815660   0.169972  -0.761203
Pb    0.139094 -15.958203   9.041703
Be   15.215330  -0.538688 -10.309821
At   -5.530976  13.225901   6.506308
Ce  -12.340536  14.422686   3.113475
Er  -12.668838  -2.273044  -0.409992
I   -13.889203  13.605368   6.159205
Rb   -2.817024   8.373696   3.226393
Er  -11.243605  13.098027  -8.805814
Be    4.165378 -10.983845  16.616852
Y    13.922824  -4.435003   4.100120
Cu   -3.246786  19.163718   7.872118
Pm   -4.452629   9.583833  -6.758438
Co    8.999533 -14.307385 -11.647955
Se    7.830135 -15.615469   7.748328
Tc   13.628279  -2.284480 -10.633905
Ho    2.701563 -13.173064 -15.691430
Ta    4.335311  -9.170846   2.470336
Ge    8.214783   9.385638  -7.543000
Ca  -12.995883   3.247932 -16.371498
Nb  -11.715395  -0.912469   7.737584
Ni   -5.784265  10.062607   5.292811
Mo   12.812398  -7.066484  -9.444633
V    -2.271898 -13.514723  -6.953888
Li    1.414884   1.416308   5.441196
Gd   -2.374008  -4.323040  19.308165
Hg   -1.171629   3.301617 -12.017985
Tb    0.198019   6.984487 -14.049898
Dy   -2.381012 -16.536306  -1.882732
Sn   -8.852155 -13.524914  10.597456
Ta    6.256634  12.029928 -12.273533
C   -14.020780  15.137786  -1.292358
Cd    8.659163   1.251906  10.640945
Lu    5.409481   0.387529  -7.061479
K    13.975779   6.096329 -14.548838
Ba   12.657138  -8.829698 -13.978515
Au    2.583636  19.437897  -0.276485
H    -0.593772   7.534804  -1.203289
Ar    9.452796  -2.814712   7.232888
Ta   16.529595  -9.215995  -4.326190
B    -5.601400  10.835849   1.429671
Po  -10.383793   0.549438   3.138184
Pr    7.553505  -0.643475  -2.902569
Pr   -4.037138  -0.646629   4.097644
I    16.388102  -3.293191   8.722533
Zr   -4.618643  10.896759 -12.530252
Au   -6.916117  10.428598   9.305290
In  -15.282705   7.785028 -11.630049
Gd  -13.540928   0.835191   9.025672
V    -2.187896   2.858837 -20.527059
Tb   -7.159245  -7.892702  18.059800
Sm    7.690413  -1.643329   5.626296
Zr   -1.244004  -9.897262  -3.763320
Os   -0.613078   1.554472  18.620174
At  -10.826290  -8.889653   1.752766
Hf   -2.372976   2.333687  20.329231
Si   -3.427140   2.266342  16.138880
Eu  -13.534634   2.947100 -11.941092
O    16.206519   3.437634 -10.218366
Xe   -9.370227   7.259725   0.537786
He   -5.872115 -13.856394  -9.081156
Au    1.459051  -0.780439  20.899246
V     0.819275 -13.375603  -9.175531
Eu    9.508838  -1.055384 -16.794549
Ce   -9.038546   5.460548  -0.291760
Ga  -13.339313  -2.692460  -5.591501
Sn    3.771715 -13.262371 -10.423595
Yb   -5.052025  -6.893372  -2.967103
Sc    9.554925  -7.905741  -8.242755
Mg   11.485808   2.632506   3.467260
Re    2.223219  -7.477904 -16.973859
He   15.046678  -2.931609  -2.127015
Rb   -7.784388 -15.197930   1.607842
F    -7.800067 -17.248951  -7.028865
Zn   -6.349849   2.086722 -16.379775
H     9.439493  10.806781  14.307142
Tl   -8.628542   5.780028 -11.126569
Ru    1.314471  12.305981   6.586460
Tl   -5.851777   0.636127  11.710233
Cl   11.828618  -4.227004  -0.534094
Y     2.550821 -12.870691  -1.041698
Zn  -12.981826  -1.474685  -7.245791
Au  -12.638041  -3.432498  -6.925362
Cr   18.964267  -0.821647   1.274859
Cl   -3.255839   3.638757  -4.061116
Sn   13.621776  -5.814972  -3.816654
Rh    3.718253   2.623792   9.977312
Rn   12.743677  -1.907025  14.900297
Ta   -6.918131  -6.839819 -10.925292
W     8.088817  -8.380239  -3.028345
Co   -9.113458   6.852169 -12.793537
Pt   -1.812868  20.406828   0.104579
I    -8.620072   3.986633   9.699724
Cr    8.597486   3.993079 -17.462949
I     1.965820  -0.198840   6.014766
Rn  -15.698732  10.173825  -5.782254
Re   -4.704673   8.436554  16.518898
As    9.552018  12.993473  -9.519241
Er   -0.294721  -2.266972  20.577448
Ne   17.924719   7.085375   7.108748
Fe   -5.127581  -5.811256  12.888410
Ti    5.120633   6.487593 -16.944515
N   -18.138501  -3.734049  -7.180286
Rn    7.136817  -5.837926  11.704198
Zn  -10.134884 -11.992334  10.364966
Sr   -3.745413  -0.059233 -11.454314
Lu   11.139588   9.420971  12.971075
Ho    9.316305   4.665277   9.841601
Tl   -7.530951  18.077332  -6.769865
He   13.333329  -5.867378  14.876723
Ca    9.160228  11.842654  13.046226
Al   -3.348153   6.218387  15.497253
Yb  -11.584521   2.387836   4.524393
Se  -10.615106   8.802030  -7.614530
Lu  -18.288481  -6.036319  -6.793399
Po  -15.233372   6.903038   1.001469
As  -13.378352  10.289909  -4.236615
Mn    0.023091 -14.307308 -15.088883
Te   -4.719266 -12.945689  -4.609058
Mn  -16.462396  -3.779549  -7.691729
Pr   -9.998552   3.357644  -0.949643
Cr    8.553990  12.358379  -1.141033
Pb  -12.666904  13.995674  -1.229823
Er    3.958993 -19.642298   0.897095
As   -2.245253  -1.318845   3.423614
Ag   -2.719533  11.247499  -2.341788
Bi    5.167163  -9.067037 -15.035424
Se    0.775066  16.437110 -11.392319
Cs    0.666847  -4.896119  11.683257
Na    1.719710 -11.614836 -17.261727
Ru    2.842025  10.713928  11.551815
Ar   -6.615799 -14.032623   0.035050
S    -7.353488  -9.586638  13.013669
Ar  -18.254710   3.123601 -10.208878
Nb    8.574018   1.381422  13.411711
Dy    1.380913   9.462514 -15.692182
Ga  -13.463995   0.968672  15.420138
Nd   -7.039849  -0.303107  17.014532
Ca    9.172303   6.364360  -5.007059
Ne   -0.699504 -12.516826 -13.082206
Re    9.547451  -3.286863  17.122252
N    -1.236077   0.704090 -14.858413
Ar    5.859385 -15.153204  -0.386508
Sn    2.213891   8.226112  -8.127494
Cd   -8.913078  -4.837624  13.956428
Pr  -13.646806 -14.924727  -3.693308
Se   -5.222402   0.048794  18.863935
Sm   -5.249700 -10.590578   6.990678
C     3.143279  14.055350  10.233459
Sb    9.077170  -1.287924   0.567867
Ta   -4.942902  12.591049   6.295707
W    11.630537  -6.043315  -4.767041
Er   -9.562248   7.382623 -15.322632
Na   -1.610747   0.342131  -6.635752
Rn    8.126131 -11.610345  -8.790348
Tc   -4.239903  10.018286 -14.937141
Pd    3.077214 -17.864933   8.879298
Ge   10.988290  10.512763  -9.677846
Rh    8.885815 -16.364856  -0.754229
O     3.113752 -12.525734   9.331225
Ca   16.321582   1.534888   3.252628
Ni   13.992745   2.461675   4.910613
Ce   -5.196788  -3.338732  -7.332074
Pd   -9.066604  -6.479002 -14.171411
Ta    6.550454  18.230691  -1.882589
At   -1.998710 -19.929092   3.416044
Eu   -1.290282  11.246794  10.562253
In   -0.436188 -11.014777  13.522432
Tc   18.786040   3.722709  -2.587142
Sc   15.601874  -8.885111  -1.435972
B   -15.589652  -1.393911  12.512392
Hf   13.057245  -9.568204   8.333440
Zr   -3.209916  11.038467 -10.437922
Xe   15.169775   3.564404   5.631950
Mn  -11.242728  -6.235156  -6.129003
H     9.999875  -4.932289 -15.085596
Si   -2.661245 -10.708025  12.598014
Eu   -3.893897  -8.888585  -7.578940
Po    3.112658  -1.088143   1.254384
Ni   -8.262808  12.522674  13.501168
Os    9.559652   8.620699   1.476182
I     2.241852   1.632630  20.328173
Tl   -6.270192  15.411549  -8.420761
Pb   -6.289206   3.620965 -15.185679
Sn   -7.280947   7.908635  -3.597374
Ni   13.996093 -15.637772  -0.348069
Er   -1.079276  -0.267449   3.486441
Pt   16.937620  -8.050627   4.600596
H    15.439718   5.703634   0.773592
Co   -5.795186   0.144194  20.332029
Y    11.134875  -0.730814  11.691180
Co   -5.227257   1.131313   9.045633
Rb    7.674958  -6.440859   6.432477
C    -1.697395   8.990442  18.824054
Ge   12.987142   5.910913  -6.922238
Na   11.815236   1.697979  -7.783537
Cu   -9.851555  -5.374774  13.346817
Y     4.455275   4.763822  -9.124940
C    -4.981241  15.668190 -11.301245
Au   -4.035447  11.303489  15.464887
Ne   -2.741452  -4.709951   5.183490
At  -11.848396  -3.260366  -4.610780
Ge    9.082978  12.778977 -11.621199
Lu   -9.085061 -12.328804   9.087745
Ar    9.870529  17.753050  -0.709750
Ca  -15.174757  -5.594598   2.953933
Hg   -2.651173  10.050689   9.423222
Ir  -17.489422   7.586519  -2.992681
Tm    2.636291   2.466593   4.975383
Ne   -6.442818  -8.942240 -14.597960
Ge   -5.373778  -3.226696  17.623385
Se  -14.964344  -1.943003 -10.806825
Sc  -11.480411 -15.562691  -0.510004
Lu   10.767257 -11.730768  12.854799
Pm    6.804050  -1.762761   1.818948
Mg   -3.417628 -10.537071 -12.777793
Ag  -14.090752   6.396122   5.492086
Ag    4.924319  -1.067889   3.154013
Ca   11.259348   8.938253  -1.750273
Sn    3.913554 -16.455694   0.947740
Rb   13.796758   2.257335  -4.193269
Rh   -3.325150   6.283719  13.672475
La   -0.642863  11.271162   1.220923
Tl    6.914108   4.919216 -17.091341
Ce   -3.203815  16.701144  -1.579309
Nd    7.763751  -0.708421 -13.183559
Ar   -4.317526   9.131721  -3.560595
Sm    2.212588   7.370280 -11.473635
Nb   16.696375  -0.589048  -5.001172
Te    4.962041  -6.266087  12.097767
Gd    0.049383  -6.242037   5.113003
Cu  -14.147325 -10.414650 -10.102237
Sb   -0.644005  10.431972 -10.151578
Pr   -4.816010   7.772697  10.862368
Li    5.896327 -11.184280   3.670337
Tb   -4.633089  -8.047144 -18.679892
Cu   -4.940088   4.555614 -20.041158
Ba    3.296695  -9.666493  -6.657906
Mn  -12.025487   5.513445   5.462369
Pt   -9.186451   0.757167  -3.107674
Au  -13.362171  -3.450075  -1.722950
Tb  -15.144461  -2.674726  12.842840
Zr  -15.937759  -3.010788  12.952648
Mg  -11.465712  -1.747846  10.141491
W    -2.585459 -19.364163   6.511307
N     4.474085 -19.996334   4.987985
Sc   -9.219659   9.167188   2.165395
Nb  -15.941633  -3.899081  11.956614
F   -11.602246  -4.812969  -7.902293
N   -12.228960   7.156167  15.244039
Nb  -18.989751   6.940438  -5.202526
Yb   -7.792765  12.898923   2.690452
La   -6.257390  -1.181069  -4.305085
Yb   -9.927902 -17.217715   2.599401
N    14.186931  -8.212401  -9.627137
Cl  -20.602552   0.435242  -3.657597
Po    6.068034  -9.694896 -12.598226
Na   -1.615883   5.400232  -5.426722
Cs   -4.628126   8.894184   7.158685
La   -2.819988 -12.214006   5.772817
He   18.520328   3.163418   5.106013
Cu   -3.351535 -11.821850   1.878090
H    -9.518759  -4.677161   6.410144
Ta   -0.506689 -16.186283 -11.417261
As    2.487914  -4.404897 -18.401977
In  -13.408259   4.546169  -8.738334
Cd  -19.437720   3.403515   4.557787
W    10.344991  -1.496597  16.441642
Ga    2.131084 -14.996838  -7.450465
Bi   15.802728 -12.610859   2.153521
Os    4.620329  13.383394  -1.989385
Ga   -0.123453   4.531869 -10.199245
C   -16.362282   1.149812  -7.210650
Tl   -0.775130  -1.299348   4.365035
Cs    5.031575  -5.577377 -15.587823
Ti   -4.592677 -13.558316 -15.346816
C     4.063849   7.295664   7.295660
Ar   -7.772377   0.351285  -5.324180
Kr   -3.093763  19.982820   5.242566
K     6.247151  12.229161   7.306050
Ar    3.005821   6.348472 -14.828711
V    10.275584 -17.823324   0.090933
N    14.226794  -2.634192  -3.188255
Tl    8.188629  -0.876902  16.833960
Pm   11.764813  10.603222   3.643025
Rn   -2.975186 -11.315242 -15.225488
P    16.838059  -0.698563   3.098927
Ba   -6.009285 -18.353349   7.024440
Cs   12.974875   9.502195  10.074194
Na    9.885228   5.248048 -13.797350
Ti   14.139881   8.790559   9.369242
Hf   -8.485322   0.886120  13.993653
As   -0.995974   0.076088  10.913551
W    -4.012511 -11.688209 -15.080117
Pt   11.841306  -6.413200  -3.176699
Ge  -14.374200  13.500024   7.725071
Sr  -13.094703  -5.448473   3.405329
Ir   -9.483373 -15.137636  -9.797024
Hf   -9.880423 -10.697924  14.109117
Mo  -14.398797  -0.372398   9.833071
Sm   -1.400554 -16.908433  -1.647352
He  -14.433344  10.323558   6.969987
Tc    2.422761  12.761689   6.345677
Se   -6.588083  -6.078592  11.852890
Mg    5.818041  12.808025 -14.534170
Ti    9.219141  -0.200581  17.759592
F     1.608418   4.502183   5.085589
Ce   -8.976415 -10.442304 -15.909400
Dy   10.093696 -13.299074   0.148067
Pm   12.467970   2.639948  15.847376
Nb    2.830619   5.655458   8.289632
Ge   -9.895252  -0.338759 -15.295382
C     7.636332 -10.433515   5.620565
Mg  -10.926950  14.161676  -2.485229
Ho  -12.115664  -1.092391 -10.308021
Fe  -17.323994  -7.649646  -6.114924
Po   -5.588428  17.236989   4.081024
Zn   14.978245 -10.922681   7.388371
Tb    5.896042  14.684045  -0.216026
Ti    0.542630   2.778478  17.204153
Yb  -17.957563  -0.732727  10.293992
B     4.117990  10.438209   0.424928
Nb   -1.787277  -4.054453  20.503437
K   -14.865582  -3.878776   2.927567
Ag    7.261156  11.307769 -14.118763
Yb    9.370119 -17.933313   1.036475
Ar   -3.957827   6.897903   1.758783
Y    -2.509509   8.364830  12.846727
As   18.822739  -1.322763  -8.710906
Mn  -10.026318   8.515330   3.247298
B    11.495192   0.989515  -7.470863
Gd   -3.942262 -16.124752 -11.606498
In   -1.217225  -6.330761  -0.624891
Lu  -17.758607  -0.033620  10.698273
Ga   10.938996  -4.905941  16.636835
Nd   17.932103   9.283415  -0.199423
Cu   -5.823285 -16.318382   2.920450
Se    8.743938  -0.376640  -6.498926
Ne  -12.779458   2.404977  11.162154
As   -3.321630   0.656709 -13.792653
O    14.235322   2.468982  13.538087
Sc    9.450494  -8.437070  -1.738046
As   12.600831 -13.005311   2.246040
Tc    3.027583 -15.563260  -5.849038
Os    6.837611  -2.982685  -2.116774
Rn    3.428499  10.604123 -10.309606
Hf    5.160602 -19.607002   0.717814
V    12.193500  12.664602   2.094343
V    10.985957  11.986235 -10.082223
Rh   -1.466476 -17.561204  -0.349490
Na  -14.446549 -11.578266   5.027584
Ba    6.399140  12.114451  -9.224821
S    10.523579 -13.927186   2.174312
Cl   14.979919  -4.101919  -1.572703
Bi   10.965271   7.694332  15.089214
Ar   -0.245074   2.872795  -4.784187
Pd    0.380829   1.718794  -1.087837
F     4.652537  -2.929801   1.244129
Mn   -4.745108 -16.741726  -0.391834
Mo    7.855956  10.716684   6.305308
Ga    2.798980  -1.339872   4.830978
Nb    7.252742 -10.902098 -11.377268
Sr   -6.117389   7.067481 -16.199082
Cs    3.056055   0.152408  10.990347
Te    4.360618 -15.363584  -7.087908
Tb   18.617779   7.856924  -5.193705
Cd   -1.491363  13.611404  -6.610748
Sb    4.689622  15.194671  13.942094
Ru   -3.237966 -17.245814  -3.953531
Cl   -6.638148  16.013889 -10.550977
Sc    8.874564  11.500780  -5.524094
Rh    3.115773   1.411005  11.720288
Zr   19.380490   3.405486  -5.654778
Gd   -0.178480  -1.572714   1.191814
Au   17.604566   4.480587  -0.688343
K     4.526414  -0.997773   1.660794
Os    1.202886  13.656260   1.096657
Pd  -14.529697  11.619639   0.877760
Zr   13.462752 -13.971161   2.392090
Ba   -7.862515   3.593235  -2.465784
Se   13.228605  11.396674  -1.740544
Cl   -5.905973  -0.715592  15.232149
Ir   -6.866021  12.583159   0.893006
Re   -5.462005   5.828389   1.664695
Xe    3.585822  -8.445666 -18.967466
Mn   -0.664747 -11.395298  11.299276
Rn   -7.778612   6.365279 -16.122660
Sc   -5.544323 -17.172780   2.443707
F   -13.455330  -0.661796  16.368613
At  -14.712907   1.446905 -15.029638
Ga   13.191141 -10.976862   9.787861
Eu   -4.606446   1.660782   1.520865
Al   -9.391651 -17.610637  -3.743824
Rb    3.927352 -13.047668   8.670233
Pd   -2.926104 -16.722332  -5.147431
Au   13.414891   0.037067   8.771516
Po    9.979712  13.479119   7.152851
Zn   -1.105419   7.979738   8.353230
Xe   16.089521   0.549862  -0.083428
Ar  -16.042783   5.682954   1.437689
Cd    4.134138   5.444423  19.275401
Er  -11.751489  -4.211461 -15.339254
C    -9.557397  -5.896355   8.484681
V    18.478203  -9.427688  -3.739443
Ba   -0.312121 -13.408327   5.964685
H     7.503034  14.959082 -12.066267
La   10.051399   0.882431   9.706307
Pb    6.591539   0.478060   4.277968
Ne   -7.048065 -12.825847  -3.764058
Ge   17.413873   8.159442  -3.861681
Dy    1.313581 -12.582675   5.796561
Eu  -14.673480  -5.704299 -13.996932
At    4.149503  12.680991  14.473338
Ba   -9.995266  -8.937195  13.785754
P   -15.012227   6.645078   5.518390
Kr   17.598709   2.971472   7.418858
Tb  -12.826923   8.665651  -4.563762
Mn  -13.482809   1.596608  -2.027017
P    10.301076  16.554024  -4.604303
Rb   -1.141635 -14.568186  -4.770236
Sc  -10.819056   0.651500  -4.194635
Ni   15.089643  -8.769337   4.406979
Sm   -6.455686 -15.149570  -0.581568
Co    1.364393 -15.647439   2.434159
Eu  -14.091562   1.065022 -10.203554
Ba    3.722543   8.890248  -8.070465
Yb  -10.846112   2.382200   6.286845
Kr  -17.839632   8.360349  -4.325207
Ne   10.750833   6.516305   7.849629
Mn   -0.673678 -10.960382  14.849426
Ba    2.847596 -19.551610   2.187635
Lu   -4.016162 -10.176554   2.377228
Fe   18.909521   9.526397   0.311046
Hf    1.487345  11.988699 -16.974501
Co   11.478621  -1.586861  11.436113
Ti    7.954011  10.518837 -12.658125
Fe   18.656743   4.554839   5.732665
Sc   -4.136859  -2.283448   1.041515
Mg   16.359248   5.173963  -6.467198
N   -16.134527  -9.791991  -1.761314
W    -5.431678   4.456066  17.718397
Nb  -16.281295  -9.599506   9.574548
Tb   -0.543818 -15.236745  -2.827329
Kr    5.914934 -12.597455   0.486885
Mo   -3.093259 -14.135208  -9.454483
Eu   15.434816  -8.626797   7.047152
Mn    1.213697 -15.223626   6.868463
Tm   -5.660948  -3.465946 -17.249046
Ba   20.617228   0.584683  -0.260932
K     1.455710   5.820434   8.248411
Mg   -5.625573   5.391237   6.888058
Ne    5.502833   4.205327  10.894003
Ge    2.065788  14.231211 -11.418261
Yb    9.061289   9.385298  10.505651
Ba   -3.923524  -9.223623  -3.709365
Au    8.519866 -10.086198  -0.019024
Nd   -8.198764  -3.769403   6.536254
Bi    2.687752  20.183095  -1.626759
Mo   -3.495489   1.898207  -1.201214
As   13.286613   8.272692  -6.055959
Tb   -0.358655 -11.586176  -6.022218
Y     6.223494  -3.322015  -9.424292
La    6.153318  -1.669762   1.089131
Hf    8.512573   7.046472  17.745101
Ca    0.591201 -17.467103   9.643055
Na   -1.365064   6.393343   0.467869
Sc  -14.853078  14.337124  -4.032071
Po    9.970758   1.393669  -3.802036
Te  -13.802506  11.307846  -7.840475
Cl   11.999294   2.096338   0.239311
Cr   -7.895008  -8.788084   3.327316
Ne    8.431810 -13.228760   6.651589
Pr    6.682877  -8.587135  -6.162750
Mg   -0.882639  13.547918   2.418243
Ca    0.894478 -11.305876   4.207483
Y     1.192452  11.768669   5.643164
V     7.113310  -2.110999  -7.573283
Pt    7.264320 -18.295800  -2.902792
Fe    6.354278   0.180199  17.294536
Tl    6.544246   2.806550 -10.967380
Sc   16.147004  -6.144145  -4.729500
Be   -5.921654  15.137070   4.327952
Ag   -1.464644  12.094706   5.772207
Lu  -10.775602  -5.655162   6.363549
Ru   -9.357342   5.623477  18.026953
Ag  -11.751475   8.199422   1.537542
Ti   -4.760236  16.294284  -5.595636
Y    17.390481   5.804706   3.480232
As  -11.971476   1.658946 -12.017521
K    -5.228305   8.797340 -14.119055
Zn    3.635362  13.638572 -14.250908
Lu   -7.252639   7.091827  11.960903
Au    3.210731  -3.942083 -15.049978
Zr   -3.283862   3.200904  12.027753
Ho  -15.247690 -11.148613  -2.492067
Ag   13.194363   9.370363   0.892304
Nb  -11.643230  14.943010  -6.453104
Tm   -0.710614 -14.064282   6.739996
I    -1.026397  -3.585514 -10.271153
Sc    0.638574  -7.914950  -3.329862
Ar    5.808331 -14.701953  -4.711387
Ru  -10.364511   5.495202  -5.437554
Dy   12.084599  -9.131128  -5.082103
Zn   -1.895037  -9.319888  -4.288078
Tl    0.057290  -7.547440 -13.418606
Mn   -1.652061   1.360680   1.267449
Pt    9.655514  -7.776833  17.030406
Cs    0.237644   3.238283 -10.191899
Nd  -10.537459 -13.989938  -6.007287
Sc   -3.164390   6.134247  -3.698058
Co   -7.323173   5.733707  -6.378224
Kr    6.046025 -13.825005   9.583232
Ir  -14.367043  14.898950   0.470999
Pr  -14.252651 -11.805948  -6.604410
Pr   -5.737358  -2.937043  -2.106908
Hg    8.899192  14.614204   9.163158
Tl   -7.755962   7.193712  -1.204006
Zn   -5.871907  -0.511016   1.229436
Sn    3.773452   6.354718   8.017631
N     2.374251 -14.428625  14.514004
He  -15.005447  11.580649   5.358332
Li    7.545834  13.566301  12.996009
At    0.528818 -10.778625 -11.618282
V    -3.972811  -2.490107 -12.896257
Po    4.716970  -3.878881  19.410942
Na    6.904699 -17.645992  -5.107639
Nd   -0.515248  -5.218708 -15.287177
Po   11.355019  13.550492   1.685769
Ar  -18.839183   7.973528  -0.012964
Pt    0.193683  -9.610971   6.597678
Nb   -8.172453   2.711254  11.076813
Ho    1.685291  -3.069454 -16.359370
Bi    5.228461   4.743965  -2.425596
Na   -7.585504 -10.263442 -13.343087
Pm    1.021771  13.935188  14.443577
Si  -19.231941   3.751717  -7.257576
In  -13.037089   9.949249   1.483023
Cl    1.781071 -11.723181  -1.964543
La   -3.066169   0.219721  -0.090088
Ti    6.197444   3.716017  -8.244901
Eu   -7.767326   0.812374  17.843844
Se   -8.710407  13.815672   8.839139
Re   -7.111518  -5.982589 -14.012895
Zn  -15.101406   4.160581   5.251729
Ag   -2.627880   5.572204  -1.325279
Nb  -13.615588  -8.919823  11.996521
Au    4.894006  -4.910843  11.378234
Pm   -6.935925   6.948339   4.129684
Si   14.671010  -3.693113  10.039640
Mg   -3.289298   7.548524  13.614544
Pt  -10.931150 -10.853829  14.239446
Ta   16.551341  -2.793746   2.798284
Ho   12.214567   5.920451   7.321822
Nb   -7.297549   0.827006  -6.048755
Tc   10.892595   2.560027   7.499165
Sc    1.416210 -17.237968   3.733367
Li   -9.262979 -11.306443   8.309982
Al    9.451070   7.240663   4.675320
Fe   17.167369  10.362779  -6.530233
