20000
Random sphere (Final Radius: 45.71A, MinDist: 0.8A)
Pt   -9.792994  -5.509436 -33.868492
Pr  -27.911414 -15.305879  20.797404
Tc  -19.391912  28.683471  25.706725
At  -23.226457  -3.762299 -32.585513
Ge   16.107946  14.513743 -37.896688
Tb   -1.200617 -16.650141  11.564614
Ge  -19.458336  -9.099943   7.859935
Ti   23.557268   7.473288   2.105149
Pm  -27.182975 -30.365579  -7.242085
Tb    5.481200 -14.477125  15.762697
W   -22.135006  21.397110  29.434001
Se  -27.512617 -14.161766  28.330642
La   40.222193  -4.843868   6.153117
Kr  -22.705932 -26.710430  23.445145
Tb   27.436979 -32.539573 -14.839859
C     8.432466  21.843399  34.243789
Cd   -8.897962 -31.004506   8.692321
Nb  -37.706639  -0.808153  13.654231
Y     5.585248  11.484249 -33.513151
Ni   -0.343882 -36.589989   0.980210
Ca    6.428944 -20.114573 -22.472215
At   23.575339  14.374305  22.099543
Ce  -12.892460 -12.098656  21.410221
Ga  -21.055374  15.686847  34.789858
Tb   16.955450  -2.676342  -6.404547
Be    3.559402   1.021349   5.836821
B   -14.908983 -16.693294 -26.061279
Dy   20.246895  -7.307083 -31.319083
Si  -12.193750  22.415942  20.534249
Tl    7.779299  -7.603039   2.067115
At  -28.442650   4.028979   8.174912
Ru   42.716959   5.710858  14.014888
Pd   30.407656  21.610376 -24.135771
Cd  -27.959998  -9.078771   3.395385
H    33.306235 -19.395911  -9.753506
Mg  -20.899167  16.114794 -22.185044
Si   30.579111   3.474503  20.933119
Yb   -3.631598 -11.411269  31.130744
P    -3.455794  10.140898  19.374278
Nd    2.307945 -27.107263 -24.606171
Tl  -28.344340   8.756549 -14.402456
Xe  -20.155283  29.160804  12.182758
W   -24.067293 -12.678396 -15.696650
Mg  -11.653137 -15.123700  12.730615
Br   21.432316 -10.493489  27.798903
Pr  -13.794379 -30.046592  -0.203970
Os  -35.044956   7.193872  -7.095439
Y    25.207442  28.512297 -25.294005
Fe   -4.896983  25.343885  33.172873
Mo  -15.402450  24.289157  17.321336
Si   18.864273  13.737125  13.708939
Nb    5.398406   6.208765  35.402924
Rh   37.921683 -21.571256   6.709748
Ca  -37.466823   9.622238  -1.055425
Sn   13.627750  17.748629 -24.710719
Nb   -7.171243 -34.845611  27.667358
In  -27.124076  12.764799   9.598545
Re  -26.515449 -29.408919  19.218227
S    26.968598  -5.971539  11.873167
Tb  -18.418791  -0.427793 -26.949154
Hf   41.328391  17.099365   2.476299
Na  -14.078921  29.320586 -28.610973
Os  -26.161541  -3.593418  18.027639
Co  -23.703332  13.126794  -7.808993
Br   20.609197  25.942097   0.948927
W    -2.903299 -21.748453 -27.610961
Tc    5.589670 -11.337171 -10.525877
Ca  -12.219641  -6.633292  25.358231
Cl  -11.686005 -15.570852  37.691165
Br  -25.382889 -35.376733   2.390538
Pd   22.357091 -26.525435 -16.045252
Lu   11.049977   0.601703  26.127083
Yb  -42.547916   0.196438  15.878582
Cs  -22.281859 -28.765133   5.157892
Pb    5.585665  10.725615   3.140808
Cr   18.045686  36.855711  10.370234
N   -21.131448 -24.445222  32.152801
Ni   -1.136459  26.132672 -27.636333
N    40.658820 -18.808927  -6.005332
Mn   12.434601  28.564853   1.604695
Ce    3.135370  35.931621  23.848349
Dy   -6.103783 -22.334171  -9.869612
Au   14.558542  31.161362  15.420269
Te    5.111901  -0.195563 -44.980703
Nd    2.107748 -40.635246  14.841260
Te   28.166614  -6.128604 -23.162616
Ni   35.282802  23.763596  -8.035041
Er   -4.271513  24.769986 -32.446710
At  -20.933397  16.215938 -19.945931
Mn   -0.938064  26.401810 -12.412090
Xe  -27.762291  -0.699744 -29.072420
Zn  -26.544838   3.582768  13.697635
S   -13.486690  -0.979321  -3.855714
Sr  -30.526402  -7.249622 -30.302244
Sm   13.448002  35.151909 -11.637858
Bi  -10.042659  10.682389  12.132307
S    38.245610  -0.975197   7.967430
B   -32.082822 -18.849203 -12.416418
F   -15.196735 -28.544875  14.929989
Se   10.769730  -2.197677  23.587927
Rn    5.488363 -11.958907  20.585135
Nd    7.383289  37.210672  15.529341
Mo    1.690707 -34.240813  16.561554
Tl  -26.857525 -23.460753  11.716493
Sm   -6.799508 -11.956262  25.057870
Ca  -38.010161 -10.816990  -5.996386
Ba   26.809294   5.772084  24.705543
Cs  -29.123985  22.068081  -2.562014
Po   29.186422   3.360264  17.237989
Sb   16.938504 -31.944245  10.558260
Pm   19.312286  33.563694   7.833762
Pm  -20.777452  20.120428 -24.872073
Cs   -4.554954  -7.046002 -36.337220
Cu   23.640162  33.467399  17.284665
P    25.703438  10.045532 -22.720947
Al  -21.540713  12.595163   7.839689
Er   33.362824  18.430280  -7.286448
Cr  -10.901972   9.084017  -5.273897
Ga   18.850072   3.128911 -11.243248
Hg   -0.430041 -10.789847  12.814637
Re  -11.740006  36.066149  14.058811
Ir   12.072929   5.532143   0.482475
Nb   32.978251   4.392136  10.249812
Pm  -22.111132 -14.379451  30.361298
V    -9.894582  32.416667  24.659516
At  -29.054043 -26.556300  11.148051
Lu  -14.572904  18.795936   5.581926
Nb   18.019189   6.212918  13.789126
Xe    5.998679 -32.785543  21.831588
Tm   -8.242269  14.669445 -35.925796
Nb   33.063385  15.869828   0.561646
As   -3.575713  19.548289 -37.801681
Nd   24.587226   7.530210 -16.379277
Tl   22.219847  22.879254   6.553537
Cs  -31.405107 -13.975427  27.726389
F   -28.503728  -2.059739   6.426835
I   -20.667997 -17.891284  31.717284
Ar  -16.721144 -33.622315  -3.881139
Y     8.950834 -33.628409  11.427889
Cs   29.383171  32.138590 -11.074829
Tm    6.505566   0.200521  18.933557
Cs   -6.486151   0.519882 -25.931717
Fe  -16.890163  31.039184  23.911218
Ti  -21.776025  -3.340856  31.668323
Mg   -0.811274 -33.508356 -14.316941
Br   35.858131 -25.754980  10.352068
Re   31.643852  28.383923  15.930328
Ru  -15.179382   4.004799  42.559532
C    18.830422  11.069723   0.753306
Au   -4.265679  27.459671 -23.261986
La  -20.011032   3.293043 -28.854081
As   40.345968  -0.578501  -1.382798
Si   32.718758 -22.949807   6.478669
Te  -10.806189   4.473352  31.936663
Ir   15.014103   5.484316 -38.110661
Yb   -0.659013 -29.182181 -23.462532
Ba   29.046528  13.062303  22.623573
Pm  -12.052773 -11.264421  14.042387
Ti  -21.018551  12.353405  -2.299627
Sn    4.128865  12.972280  24.005272
Bi    9.810765   0.702449 -42.256977
Cl  -32.449029  -0.933260 -13.434367
Si    9.688387  16.920390 -32.885553
Ne   21.630564   7.764181  36.923092
Pm  -26.750334  -5.518123 -24.058099
K     8.497649 -20.241303 -23.991229
Cs   15.416346   3.104243  10.598277
Li   32.110924  17.354697  -8.457329
Be  -12.781316  -3.777183 -15.090532
Y     5.650097 -15.204317 -36.422172
Ne    2.678449 -21.200576 -13.565672
Au  -12.143755  35.116194  -2.992774
Eu   22.752797 -23.307730 -17.838795
Ru  -21.847400 -20.886303  33.933646
O   -12.409621  -6.670378   4.820747
Pd    3.337772 -10.673291  24.083756
Cs   16.652091  28.502958  12.268202
Ag   -2.076790 -16.947819 -13.495960
La   21.680104 -30.587687  19.986417
Rn   -1.945638  13.496426  26.470360
Ge   31.947903  26.771489  -3.916141
Kr   -3.836805  30.000338  18.284064
P    19.953873  30.960582   0.390764
Ga  -38.818904 -17.222501 -10.412648
Ar   26.770623   6.151651 -17.706372
Cu   15.233976 -30.688250   8.689374
Ge   -0.137657  25.959246 -24.247742
Br   13.823030  11.554627  20.276341
S   -19.960877 -29.170038  25.685046
Sr   -6.353245  16.324820  -9.901842
Re  -20.110470  26.983297   3.741375
Sn  -27.052315 -12.657588  -2.610449
In   21.818434  -9.723225 -38.867711
Br  -41.193272  -5.450067   5.166165
Zr  -13.894632 -24.524752 -10.245068
Sn   -9.040954 -36.321122   9.900257
Tb   -6.885149   6.695505   8.753768
Ne   25.307782  10.354085   4.193318
Rn   -8.486725  36.020147 -22.251404
Mg   -7.679154  -6.731652  -1.539119
O    25.458859  23.384915 -14.222344
Re  -24.333952  20.116719 -12.918615
Ba   15.683179   2.503775  -2.731151
Nd  -24.050531 -16.499322 -10.247675
Tb   17.697740  13.366566 -28.803495
Sn   29.318321 -23.129474  22.721741
Bi  -11.731719   5.309509  33.267433
Re    6.019476 -30.049416   8.597289
Cs    1.626379  20.038695 -30.713248
Rn  -17.645634  22.114750   1.643602
Tl   13.858837  28.057320  27.894135
V    -1.996212  -1.585177 -23.744077
Cd   29.817538   9.670997  18.880903
Tm  -25.968745 -20.245211  13.017087
Au   -5.366651 -27.056690 -11.291487
Y    25.654495  33.448905   1.340156
C    -7.968107  23.840350  29.257924
H    12.861722  32.477566 -23.095933
Xe   35.603575  14.493240 -10.669315
Cd  -32.514459  19.096116  10.677829
Ce    5.710207  18.413378   1.551038
Ti   -5.030470  -4.529331  12.939616
Re   11.663903   8.457160 -29.677819
I   -29.443503   4.102544  -7.629343
K    -8.328135 -40.484993 -16.170900
Zr   -0.152877   4.811383  37.224416
Ar    0.632188 -43.102448   8.535359
Gd    2.224612  -3.700709 -44.895421
Ge  -12.760157  -1.255101  35.855300
N    12.886635 -13.953398 -30.233204
Cr   -5.996231   4.288523 -11.126444
La  -35.991729 -14.985128  -4.906534
Mn   35.581601  24.558030  10.426557
Dy    3.965625  20.237345 -16.044096
Rn   24.566565 -17.521337  -2.979754
Mn   26.290822 -31.953868   2.855217
Ba   -8.587805  40.106518  -4.291386
Sm   -2.322001   4.140099  17.981566
Tc  -40.965204  -9.177779  -3.583782
Cu   12.363988 -20.932527  -9.980248
Ge  -21.088604   6.126154 -38.119125
H    17.529395 -37.874433  -9.509181
Si    2.227666 -13.820428  29.981730
Ce   23.414507  14.248455  17.880564
Zn   22.455190 -23.502178  -4.197913
Zr  -30.444655   0.862440  26.348513
Ta   -4.942899 -33.170837 -21.923761
Re  -12.708040   1.589486  -8.933798
F    -8.935331  -6.793468 -26.275173
K    -9.003709  24.409871  25.104689
Al   24.465535 -21.665433  -3.448950
Ne  -14.336805 -34.058214  25.954213
Se  -38.450986  10.478821  -6.756514
Ca  -29.778489  32.015819  -8.696306
Cu   -1.247883 -30.778003 -10.991703
Tb   27.669132  14.310050 -32.134211
Er  -22.856714  11.521706  -7.497421
C   -43.740245  -5.618201   3.028603
At  -32.270309  -0.584933  25.395154
Fe   -2.204539  13.421739  15.736685
Al   11.137056  -3.008227 -37.105010
At   -1.258492  20.837683  37.246661
N   -12.155923  13.202791  11.795489
Zn   -4.907816  10.723366 -14.199372
Mo   -2.324889  31.197509 -10.639156
Eu    0.056048   7.863095 -29.082743
Pt   21.856332  -9.338143   2.861393
C    25.151654 -11.754893  17.144173
Rh   10.870133   1.492768 -30.218440
La   19.522497 -27.919910 -30.315973
Te    9.165197  36.010725  13.815579
Mg  -30.353100  30.758045   1.343032
Ga  -33.001174  19.567155  -1.446670
Ne   27.366297 -10.227252 -17.171162
Te  -35.622868   2.880282 -28.187487
Cu  -15.848851   2.886835  -1.584662
Rn  -10.181196  -6.650188 -23.949908
Be   -2.966224  34.150150 -23.403790
Ti   23.223126  29.989302  21.200206
Mg  -12.779916 -26.814454 -15.730974
Mo   20.607823  29.952057   9.770492
Nb  -33.632306  -4.138006 -19.099687
Ta    7.810806 -10.737938  14.820165
Ne    5.865257  22.757018  -9.489116
B   -18.988439  15.567962 -16.865497
Pt    0.025812  11.821573  27.681691
La   39.752562  -5.056580 -11.138700
Na  -22.382095  18.298562  -9.796792
Au    2.990727  13.964602 -15.085992
Tc  -37.329312 -18.599086  11.846392
Rn  -25.049504 -18.564227  -2.409040
Ni  -13.807379   2.621779  32.467757
Ru    5.143111   8.289406 -38.149053
Eu   -1.028675  -6.718518  23.151256
Pr  -27.000634  14.877555  -1.103043
Rn   15.170980  16.535457  -4.542395
C    14.575214  -6.363922  37.709891
Ne   -5.539648  10.660684  -8.580356
Pr  -38.942716   3.154308 -13.690526
Ti  -16.646013   2.263590  -5.105379
Sc  -22.617701  29.105202 -25.965223
Rb  -14.118214  13.137950  10.852410
Zr   -3.421853  13.417352 -14.427939
Lu   11.685238  -8.161358  -0.157663
Ho   20.995397  27.809845  21.165299
Cr  -10.681324 -34.845003  25.089459
Ag    9.442023   2.903385 -12.317985
O    -2.064552  28.103763  13.966750
Ho   21.235565   3.660694  -1.655473
Y   -17.090747 -10.585730 -10.555632
O   -18.264206  11.822351 -28.164766
Dy    0.018029   5.931396 -36.990388
Sn    7.231064   8.510534 -42.484592
Te    3.884990 -29.076075  30.070654
Sc   -7.746125  -2.595793 -25.393939
Ag  -39.896773  -9.521758  -4.446103
Ar   24.453372   3.882274   4.191593
Ir   24.437716 -28.426339 -24.569416
O     2.758829  12.045261 -20.664838
Lu    7.078181  29.605514 -25.243033
Fe   13.451523 -15.242847  -4.594947
Xe   -3.265988   9.792887  14.060307
Tl   18.088188 -15.272797   1.008572
Rh   13.037041  11.584699   1.301701
Pd  -32.070555 -23.904417  -2.412125
Y   -10.216712  -3.643657  27.663214
Zr   20.665741  27.393578  -6.562869
V     2.606244   6.239692  35.009481
Ba   15.632341 -29.836191  -5.100650
Hf    2.444736 -13.424658  32.535610
Pb    2.679964 -12.201957 -25.621073
Ca  -29.826523 -17.902449 -26.201101
S    -1.373554 -26.803179  -3.512832
Pb   -2.001805  19.129731 -21.062814
Cl   15.016355   4.815894 -17.655216
Ir    7.972949  33.371138  -5.575925
Rn   -8.868258  15.710851  34.779259
Sn   12.908184 -20.071538  15.352999
H     5.046799   4.150849  -7.027494
In   -1.322268  12.077817  -6.544878
Ru   10.480915 -30.084577  23.439789
Cr  -24.880126  -1.450843 -11.204792
Rh    5.485688  14.078506 -16.053764
Nd   -1.202256  21.691796 -29.049457
Ir  -34.398637  -6.270489 -16.799162
Ge    4.568556  23.467102  -2.505426
He   42.726841  -2.522601   3.658971
Bi   20.866816 -21.330678  -8.518782
Ga   10.383950 -17.748351   3.994615
Ni   27.866794  -6.630193 -29.537191
N     8.449954   0.954846  -1.061467
B   -13.127006 -17.158998 -27.648085
B    -4.473453   0.026913  15.213036
W    24.424300  17.378785  -3.399663
As   19.929552   7.820915  17.404448
Eu  -19.952575   8.492824 -22.984642
Tb  -31.225062   9.711921  -8.196575
Mo   35.652244   1.982101 -12.163775
K     1.417582  22.525940 -17.205453
Rb   -5.827771 -29.852801  20.410056
Nb   -4.845129   9.574259 -22.780987
N    -8.821013  23.315250  18.937218
Au   32.534107  -0.187543  14.873001
Ru  -10.430958 -25.317615 -27.258264
Li  -18.264365   2.441199  13.448656
Ba   21.443232  -0.279980 -21.061448
Y    -8.783265  23.399075   3.188162
Ga    1.609371  37.974053 -14.906339
Xe   33.317811 -10.178932 -16.585408
Sr    8.153368 -28.471373  29.182709
Pd  -14.101709 -13.918403  20.142640
Cs   15.134571 -30.771562   0.238766
Sc   26.263252  24.878715  26.685605
Na  -13.808635  16.583503 -23.989210
Rh  -17.048354  12.185760   2.316961
H    -0.591229  -4.324618  42.973964
Fe  -28.208711 -10.813860  -3.654040
Sb   -9.183897 -19.622625 -18.319680
Sm  -21.128857   4.820642 -36.413050
Cr   31.377340  25.774862 -13.546994
Cd  -29.676588  33.257580  -8.375925
Au  -20.580118   0.171485 -20.240642
Sc   -0.023858 -25.543549 -34.268893
Ti  -19.254151  22.243458 -34.278152
Hg   30.705909  18.375609  19.600728
Ir   31.672561  -5.160386 -20.755003
Cu   34.509467  10.065480 -26.850290
Sr   40.103575  14.485233 -11.913052
Cs   21.589537   6.539705  30.788996
Cr  -25.878361  27.556576  10.362612
Zn  -39.211607  11.209772  11.410477
As   27.826337   2.800581  -0.915741
Tb    1.082659   7.239484  10.333500
Au   23.685153  19.996385   5.096165
Ag  -16.524915 -25.573533  29.648479
Be   10.546044 -31.684802   3.110309
Cu  -10.916237   3.624140  24.057746
Dy    7.280218 -10.072781  -5.469805
Pb   14.240507 -12.428616 -32.724891
Sr   27.308718   3.841639  14.369898
I    -6.419553  16.729539  40.958828
Ta   37.437733   5.165270 -13.025303
Ga   -4.152092 -26.323956  36.108972
P    18.644542 -24.831925  15.524566
Pd   11.744508   9.762551  35.090668
Rh   39.122962  -4.653112 -17.087107
Mg   39.800463  15.965947   6.868751
F    23.633363  -4.036640  18.296867
Nb   24.011563  -0.013555 -12.967831
Kr   19.402856  37.155032  12.799320
Pb    1.097348   3.040950 -11.387634
Nd  -33.439788  -1.721688 -27.389681
Ga    7.031745 -37.484994  -2.862550
Yb   25.996706  -4.861072  24.840434
Sn  -33.772585 -17.828137  -7.699993
Pd   13.945044 -27.514794  20.566719
Rn  -24.834181 -14.775621 -17.997887
Sb  -29.406897  13.487430 -25.627703
Mo   -6.223772  25.011328  21.757882
W   -30.212200   3.723084 -13.244239
W     3.660417  26.909896   2.370131
Au  -31.621205  -4.531075  -2.023399
Pm   35.251366 -19.347092   5.055143
Mn   23.916990 -31.528732   9.192789
Tc  -35.755621   7.952472  13.939713
Ni   25.856348 -16.364380 -33.290831
Po   13.884042   4.486035 -42.255465
Nb    4.623996  -2.475555 -14.617358
Fe   11.966729  10.618649 -20.676686
Cl  -33.963353 -21.155354  20.016839
Tb  -12.125769   5.425137   2.652873
Fe   15.934982  10.850549  12.966539
Ne    7.634256   4.521225  28.703680
Kr    8.555848 -11.215947 -24.161715
Sb  -15.945826   4.733611 -28.321354
Cu  -27.964066 -19.799929  -3.483279
K     6.936050 -18.584341  24.933279
Sr   -4.159350 -10.937597 -41.558144
Po  -16.410540  -6.177249  12.660977
Ar    9.157468 -34.589764 -20.948460
H    22.499620   8.658936  21.471670
O     4.949285   3.364585  31.320052
Sn    2.378269 -19.727624 -27.903442
Ru   30.316470  15.211884 -21.965043
He  -24.781168  -8.386917  11.471002
Pb  -35.393293 -24.713435  -8.847653
Al    5.394592 -27.942110 -14.352093
Ce   -8.883900  24.828805 -35.981372
Mg  -32.086781  13.949077  14.537681
Tb  -15.233088   8.052373  37.380050
Xe   13.277492 -24.803373 -34.221192
Tm   -5.007347 -20.000618  35.102038
In   23.789737   5.922892  38.095743
S   -26.605249 -14.467775   9.809041
Ag   -3.734877 -33.409478 -28.235458
Dy  -21.971390  32.110455  -3.150641
N    14.313610  31.001094  -4.821884
B   -30.126706   1.361227   2.461866
Ag  -13.522820 -28.101668  16.631983
Kr   20.840945   0.082031  -9.394899
B    20.406309  15.284031  36.464498
Ar   -3.537944  -3.507554  23.954835
La   13.742238 -28.878063   5.074709
V     9.705660  20.380446 -20.460957
Gd  -15.203748  13.921471 -19.271671
Sc   24.683062   1.672810 -37.222682
Rh   -8.966232   7.841919  23.660772
Ne   25.360537   9.980691   3.140675
Ga    2.913032  36.311685  20.128278
He   28.086450  -9.766706   2.087386
Gd  -23.106720   9.746748 -25.658012
Mo   26.084441  -4.193858 -28.179504
Na   19.060415   9.021769  12.384676
O    10.893129  -8.459642   1.526795
Au  -17.100360 -16.395209  -1.605185
Sr  -22.449544  33.030496  21.982919
Bi  -13.083137  18.529903  -5.107122
Gd   24.684451  18.618228  32.898987
Dy   18.747316  15.251679 -35.860860
Gd   35.791036   4.454411  16.326616
Rh  -22.255822  19.325022  30.349927
Y   -18.280871 -31.432984  19.815145
Nd  -11.878822 -16.973634  -4.766567
Cs   21.003102   3.778617  39.148289
Ho  -21.589022  26.132444  -1.357955
C   -10.550622  37.603453 -23.366539
Re    4.486376  12.766881  36.056172
In    8.633343  42.288996   8.064819
I   -24.768101  14.043374 -17.600343
Pr  -33.155848   2.708306  25.526110
Al  -14.324159 -26.723944 -14.033731
Zn  -20.881298 -16.624890  24.426287
Ru   -3.751076   2.971699  -4.831988
Hf   30.005457   8.636102 -12.542984
Ni  -33.351838   4.166332  24.922331
Tm   35.000950  15.812461  -3.499343
Ru   19.431922  10.655813  17.921678
He  -14.160899 -22.796075 -22.798997
Ho  -38.364429  -4.422614  21.179000
Pt   22.200678  38.573215   4.914600
Mn  -23.303524  11.223086  14.840329
Cr   29.256480 -21.138274  -4.178684
Yb   31.977197  14.280445  12.972500
Er   -5.246012  -7.118959 -32.093972
Sr   31.830530   8.772624  21.458196
Ni  -39.976584  10.872048 -12.363984
Gd   11.148757  10.625386 -37.453022
Hf    0.527493 -21.214147 -20.006473
Li  -11.765739 -28.600865  -8.712382
Sr   -5.554195  14.226528  41.633294
Hg   -5.345374  12.876868 -15.077575
P    31.759598   2.449502 -11.548073
Br   18.586105 -18.204085  31.855029
Yb  -16.638655 -33.565688  -1.754918
Gd  -13.804379  19.106764 -18.458962
Hf    1.146604   5.325310 -13.607162
La  -23.584014   7.618828  28.231471
Gd    5.068859   7.839878 -26.463589
Ge    4.530771 -20.331468  17.364680
La   14.108638  27.217401  23.002001
Ti  -29.544996   4.622779  20.180077
Al   -6.830702  -0.974446  14.389137
Xe   -6.874375 -42.596272   9.696129
Pt  -10.859925 -27.244434 -17.466420
Mo  -14.152623 -26.877898   4.224966
Lu   10.035140  12.643576   6.649465
Li    9.026821  17.000190 -22.232481
Tc    1.960291 -16.961293  27.267190
S    10.364592 -32.205993   0.828957
Rh  -14.519538  -4.110693  34.355880
Os   15.237697 -10.404695 -16.278930
Zn   14.550095 -25.907800  -0.668267
Eu   -8.151069  12.957459 -35.945352
Cs  -32.326693  12.571664 -19.684444
Re  -15.115419 -38.422669 -13.348082
S   -10.549482  21.631641 -36.771711
He    5.902576 -39.510633   3.970812
Cu   30.382220  20.712262   0.701072
Pt   24.799050  -0.041039  12.058368
Gd   18.281405   5.594694  30.876543
Be   10.969124  -5.387766  27.880679
Rb    6.553559  32.595979   9.874873
Rb   -8.638818  18.874380   2.626805
Y   -13.887062  -4.871353  33.794167
Sm  -13.305418 -22.428127  18.659322
Sm  -19.041193 -12.926034   8.305168
Ho   11.574540 -16.871070   7.831854
Hg    8.355694 -18.214933  33.150485
W   -30.184152  18.389939  -6.617279
Ti   27.719061  -0.147816  21.326911
Se   -9.422319 -24.528348  13.953175
Bi   28.117916  -5.590723  28.948037
At   31.866056 -14.468519   7.819409
Xe    3.492751 -26.872870  23.053019
Gd   -6.732753 -27.851875  -4.316242
Ce   -4.685631 -24.021504  24.144542
Pb   15.130144  -3.481444   0.704472
Rh   10.909904  15.766001 -41.455726
Ag    6.071176   6.881265 -26.139194
Pd    8.226600   0.834155 -19.191254
Hg  -32.091021  20.216503  -7.461078
K   -17.379587  26.603780  -8.902273
W    28.391531  19.052481  -4.612424
Tl   42.043754  -8.874052   6.907691
S    -0.955237  25.341965   5.075614
Pr    0.377267  19.025519 -40.937742
Be  -18.197244   4.584082  -1.812910
Ta   -9.878664 -26.718527 -12.767646
Mo   10.572839  15.359180  20.031130
Ru   21.090225 -12.882027  23.727278
La   -0.723754  33.890260  -7.392252
Bi   -2.234250  22.481314  29.337545
As   29.272720 -30.454546 -12.373912
Al  -20.295230  30.264843 -20.015979
Lu   37.197908  12.897638  -4.417206
I    10.014486   1.823250  25.425188
Zn    0.623761 -25.897538  -6.184731
Se   14.511589  33.887233 -20.766711
Ho   13.419016 -19.293685  26.734528
Nb    2.311557 -12.611868  -4.759023
Be  -21.036746 -18.193323   8.217841
Pd    8.564727 -42.583485  12.025688
Tb    6.671997 -39.305281  21.540526
Sn    6.358678  -6.132039 -26.415619
Eu   30.662738   1.405644   8.078901
Po  -25.551025 -13.414155   4.582882
Sc   16.354472 -40.491002   6.129553
C   -12.542019 -33.094147  19.789987
Ho  -10.757812   6.349801 -42.484793
Sb    5.722988 -12.174063 -35.628811
Mn    7.531701 -17.260986  19.341004
Fe    5.534853  11.844006 -40.121118
Hf   14.645749  29.386064  26.387660
Tm   25.813326  20.725565  -4.104762
La    8.717746 -33.597186   4.072694
Li   17.391572  -2.437609  10.824857
Tl   13.201464 -26.687296  27.384723
Pr   -2.264535 -13.800097  15.653299
La  -38.718416  -2.739064 -18.148595
Re  -23.413647  -4.682830 -19.045295
Sn  -24.066886   1.063542  32.916637
Os   23.311730  30.758596  10.646230
Te   23.298127 -17.358838 -32.612503
Ti  -13.563231 -34.612861  23.925653
Gd   17.299674  -8.603158  -5.697854
Pd   21.327530  17.132232  25.955105
Eu  -18.883880  -5.570328  -0.990182
Cr  -24.244176  15.710472 -17.539166
Rn   23.731818   5.737124 -35.679859
Ta   -0.758767  41.167505  -9.555974
Gd   34.541470  15.019992  20.640280
Sr   -3.835506  32.476048  31.870672
Ga   44.939059  -5.351255  -2.102872
Mn   21.662468  15.214811  36.861711
Fe   23.238478 -13.483172  -6.703396
Rh    5.495483 -14.903176  42.037364
Nd    1.131136 -19.346188  40.295619
Ne    9.788317 -33.618201  18.024910
As   27.332802  26.918753  12.254614
Po   30.504151  15.544779  12.342844
Rh   -4.308747 -24.472134 -12.779177
Nb   29.084538 -25.427944   7.648065
N    12.365598  18.858172  29.112972
Yb   36.323022 -11.789411   7.131953
Tm  -13.233805 -10.551004 -41.779754
Pb  -38.730675  -0.584684   6.131101
S     3.831341 -33.172928  22.024519
Rb  -14.364540  -6.392022  31.788261
Cr  -35.212484 -16.291880   0.239168
Se   24.323690   3.039310  28.755621
Kr    5.449794   3.826599  43.720153
Mn    0.972140 -27.936660 -34.829026
Ti  -29.408875  -2.637709   1.217984
Tl  -12.958904  14.622992  25.851129
Hg  -11.811191 -35.206942 -15.628975
Gd  -31.658929   3.301580  10.060004
Pd    5.931531 -22.419311  13.200977
Sm   26.416681  30.427516  -0.357779
C   -20.363345  -4.061499  -6.120778
Cd  -16.555927  -5.380845  31.854100
Tm   13.224621 -13.160603 -21.974975
Sr  -16.645585 -40.147786   8.392332
In   -4.175355  32.158086 -11.273284
Pb  -16.070160  32.939305 -18.733083
Ca  -20.188064 -22.684755  11.492816
Zn   28.750726  -0.586916 -14.052856
Xe   13.437961 -40.689435  -6.854239
Ir    1.308667 -44.757947   1.107416
Pr  -21.657196   5.183293  38.446021
Ir   11.866750   2.767563  -6.285572
Mg   25.839699 -23.051025  -4.089195
Li   -1.970590 -26.243324 -12.642504
Sr    5.064821  -0.872621  -9.728672
Ag   12.770919 -32.995436  -4.024789
I   -36.266586  16.003740   3.816414
Sb    2.907139  20.180705  37.593330
Cd   -1.140497 -32.398239  18.611672
Sn  -21.920411   7.650330  28.752061
Ba  -26.079754 -20.876660  24.162268
La   12.011562  15.243350  37.565761
Re   -1.989983 -30.933056 -29.756352
Te   12.228983 -27.242875  12.871394
Dy   14.504601  -2.347817  20.928770
Ho    6.166239  17.629359 -27.791263
Ge   39.556079  -9.839427   7.654678
Hg   -1.889354  20.159471 -35.693809
Ga   18.745358   3.598869 -16.058789
Y   -32.640753 -12.744039  16.606632
Co    2.474398  16.525962 -20.060037
Na  -22.756685  -0.061541  15.673692
O     4.577395  24.556109  33.166728
Tb  -11.360295   1.328291 -11.611573
Bi   16.921287 -19.759650 -34.947110
Tm   24.188462   6.364468 -20.064593
Rh  -15.083174 -30.530814 -11.089826
Cd    0.165890  -1.331077  -8.422805
Y    -0.610364  32.315153  -2.797536
V    -0.467504  37.756722 -12.164110
Zn   34.786056  -0.932676  -4.336411
Xe   28.527598  -3.477248  -0.677776
O   -11.231211 -16.824075  30.067928
Pd   -8.384694 -16.781920  31.158454
Ti  -23.489730  13.324506   1.964587
La  -21.858896   6.677590  31.719953
Pt  -18.703796  35.763007 -10.674230
Sc  -34.765178  19.600051   5.241313
Nd   16.404456 -33.617789  -8.673069
La   -2.787057  23.688940 -20.846591
Sm   32.595171  24.086149  15.033294
Ho  -22.563204 -32.974864  11.304974
Xe  -22.133704  22.240563  12.294100
I   -34.499381  -5.763478   1.993229
Zr  -31.581979   4.918533  17.024143
At  -15.688869  28.045195  24.712467
Al  -16.990656  19.044454 -31.984939
H   -13.614517  23.843740 -15.540724
H     6.634568  -0.681214  42.164914
Dy   22.219013  12.027305  -5.203468
Mo   -5.802043  12.275152 -41.259857
Fe   23.232122  15.161382  29.763792
Mo  -19.196028   6.186185 -11.235573
Ni    9.281482  38.615144  -8.746438
Bi   -1.959498 -30.480226  27.943760
N    13.474727  -6.587009 -35.841702
F    35.316561  19.278441 -16.501664
Cl   -3.567660  26.691933  -5.280341
Au   30.803047  -3.834914  27.239302
Lu   -8.671020  23.057527  27.247139
He   14.348614  30.928509   8.848296
In   21.545847  22.635843  -8.576627
Tc   29.492304   1.147185  28.687060
Zr  -29.272222  14.685574 -22.655434
Sr   21.757341 -36.391914   9.954598
Te   -4.593545 -10.176088  16.035343
Sc   23.901246  -6.828245 -32.553792
Br  -23.633744  10.633528  36.466899
At   -0.115721  10.248149 -37.210615
N    -8.980729  -5.329508 -24.217520
Dy   28.425113  -6.690640  -0.716649
V   -31.550742  -4.301670 -22.014507
Cu  -23.712263 -11.046838  31.981555
He  -18.051769  -9.286026 -34.658500
K   -37.433039   4.607478  -6.080551
In   16.912672  14.195902  18.151613
N    -3.854623  -3.659664 -13.661095
Gd   -0.942784  22.683814  -5.024611
Ge  -12.334874  31.066886  -4.152076
Al  -34.884137  26.185351   5.552719
P    34.088597   6.582373  -2.747356
Hf  -15.270345 -17.098688  -5.103082
Rh    4.912046 -35.852417 -26.885272
Y    31.864582  15.574648  18.707791
Cd   25.426480  12.275548  20.017573
S    16.730833  32.232742  18.790065
Na  -33.633297  24.254684   5.338050
Ta   -2.293294  14.181689  38.997672
S    12.636532 -35.866844   8.588120
N     2.816195 -41.606253   8.016128
Ni   -9.784676 -29.896295  -9.423870
As    4.410723  33.765079  28.037090
Lu   18.918642 -24.079284 -31.866153
Hf   24.997827  20.209281  -9.302733
Lu  -17.197982  -3.962858 -40.468182
Rb  -14.796041 -21.365939 -15.947240
Tc  -24.914314   6.765577   4.051438
Si   17.145472 -37.547047  -0.124953
Ru  -11.581530 -18.849319   1.066668
Yb  -34.221425 -23.986826   7.105393
Mo  -33.973956 -10.379858  25.970835
Kr   18.408789  32.387479 -25.379491
He   -2.113828 -41.307801 -10.930228
Pr    0.728031 -34.211695  24.812840
Ir   14.025686  18.445071  26.764808
H   -11.106241 -31.209075  19.244748
Cu   -9.741326 -32.223210  17.406548
Cu  -11.830003 -17.490622   5.096713
Rh  -42.698371  -5.779821   8.774802
At   -4.870699 -27.195043  14.433558
Rn   14.856729  10.455923  20.250429
Be  -28.951111 -33.155106   9.133909
Lu   13.148919  10.227463 -10.354274
Se   13.238571  35.488057  -9.068897
Si   10.065390 -16.906032  30.683891
Mo  -30.952452   3.871640  14.551326
O   -32.787685 -29.089588   7.625122
Au   37.554495  12.394676 -10.815460
Cr    4.959566 -39.284832  15.996208
Fe   13.693179 -19.383752  -1.794226
Nb   12.779653   9.105330 -12.990988
Rn  -25.059482 -30.317287 -15.058182
Ni    1.377038  41.574785 -11.391800
Cr    0.482910  31.741518 -27.393387
Br  -26.986589  28.377128 -10.469324
Ce   -2.356865  -1.272030 -43.088520
O    -7.742718  41.237545   1.626955
F   -14.469427  -2.952511 -22.450984
P     7.218374 -25.860192  12.865058
Zr  -15.072207  19.886762  -8.200283
Br    2.831845 -34.655946 -14.373332
Rb  -30.055294  -3.694660 -25.201410
Ca  -11.293778  35.000992 -12.743128
Y    20.901619  -2.831627  13.089532
Er  -35.328401 -20.426569 -16.846670
Nd   29.499070 -13.218074  25.696114
Tm   10.815178   6.786814 -11.839755
Ce    4.198942 -13.057764 -23.209406
N    21.822304  -8.615766  -9.465325
Cu    8.822878 -20.512035  13.628826
Hg    2.655947   8.912825  30.103699
Re  -26.422772 -33.642035  14.809651
Tl  -33.783154  -4.897885 -12.431557
Au  -24.254491 -29.031816   3.929278
Ir   -1.115352   1.278205 -36.623597
Nd   34.148383   2.932881  22.048435
Ge  -21.523810  13.774603   9.597633
Pt    0.207091 -17.095290 -41.015760
Eu   31.599287  -2.353032   7.817234
Rn   -2.612858 -24.627290  32.087763
Pt   14.834329  -0.513439 -37.079112
Ar  -31.384364  -8.528822 -27.744789
Cu    7.510943  18.931581   6.583868
Tl   27.640307   9.282420  -8.463399
Li   11.406203  24.903927  28.163727
Pd  -27.537282   8.668227   9.265771
Na  -27.596042  -9.007745 -14.765169
He  -44.798297  -6.255086   3.341161
Dy  -17.265657  33.085273  -7.703525
Sc   17.218340 -22.147713  19.923294
K    -2.115141  15.243084 -12.383945
Ti   17.764766 -10.164958  -9.226999
Kr  -28.593409 -25.815595  -8.321041
Sc  -29.985655 -15.589599  30.419255
K    -3.970086  37.815030  18.095115
Dy   13.233457  28.870878   3.026719
I    -8.906949  17.780822 -23.884737
Pd   -0.067069  18.729547  11.193251
K     1.532133  -9.767948   7.257605
Ge   16.641938  37.127729   0.567000
Pt   33.460035  15.999281 -16.480761
Dy  -14.051377  13.434569 -32.606278
Mo   -5.361854 -34.917632  -3.258737
Sm    2.126828 -35.527102  24.150960
Bi   35.485477  17.427906  -6.934604
Te   -0.864232 -41.827346  15.770657
Tl   18.874655  -2.979858  24.719829
Mo    4.214568  15.976905  30.459376
Ge    6.515815  33.272821  15.520257
C   -11.957838 -29.934057 -20.537658
Dy   12.611286  12.041600  20.940864
Xe  -31.173322   6.587033  29.113298
W   -12.836272   9.625373  41.032663
Os   -6.570244 -22.887424 -32.787606
Os   -3.648114  36.083029   5.333597
Ga   10.120442 -30.716158  -1.562869
Nb   13.350650  20.160993 -11.715479
Ne  -26.127696 -17.858488   7.160119
Sn  -27.561249  18.061082 -14.223170
Pt  -27.974766  -7.839420  29.847066
Cr   25.419738  24.038580   6.841821
Cl   -6.341295 -26.346857 -27.026433
Ag  -11.277495  21.136636  19.383406
Al    8.195591 -17.424819 -38.566036
F    -2.961418  -2.826424   8.089979
Na   -6.528237  14.006824  -8.781164
Zn  -12.744904   5.000364 -42.944045
Sc   22.922130  11.120772  20.430238
Gd  -38.949456  10.276282  10.765314
Ru  -15.229384  24.302372 -17.234768
Cu  -12.906795 -30.904716   9.625923
Li   15.880163   2.443872 -32.552327
Hf  -21.084623 -39.475623   3.941172
Pd  -31.431570  20.431416 -12.012803
Ge  -25.202010   5.726142  17.491625
K     8.041724  -2.624280  25.558969
Rh   -6.768461  18.235794  27.124217
Si  -26.544915   1.154064  26.757674
Tb  -15.834840   1.730824  40.861924
Ca    9.604395  24.036242 -20.752165
Pr  -10.769299 -43.551514   4.559989
Be  -38.277016  -1.671653   2.319778
Ni  -10.343362 -23.043100  28.168259
Co   15.290745 -12.869019  40.843390
Pm  -10.013971  -1.716512   2.385427
Ce  -18.647892  16.891577  32.127233
Dy    8.085540   3.297690  39.375885
F   -16.068432   6.940433 -29.190797
Tb  -11.658994  14.790183  11.593929
Gd  -33.133001 -14.280094  27.509854
Br   10.097636  -0.650947 -22.368055
Cl  -21.771839 -26.004563 -11.564571
Gd  -15.232468  29.019366   8.102834
Po  -15.827326  14.146849  31.249541
Sr    8.199234 -26.293749 -20.098005
Be  -19.457464 -38.148569  -7.289219
Hf   12.678877 -38.447599 -17.966774
Cs    9.991168  16.230499  -6.767747
Mg    1.655125  15.107914 -33.514402
Pr   25.481141  20.846560  12.998815
Ir    5.585373 -27.424641 -23.787908
Ho  -30.788882  -2.017244 -25.783103
Ge   -9.367262  24.588669  -2.417354
Be    6.730869  15.458246  30.584926
Li  -16.008508  12.498296 -15.367178
Ir   26.018332  -3.019794 -28.397881
Mg   23.964921  14.333792  -0.858861
P    23.307067   0.320792  36.933490
Au   36.511315   7.366204   4.242695
B   -21.320487  -6.988671  31.484190
Ca   18.697769  20.289704   2.861098
Sc   -0.472053   4.130929  11.815834
Pm  -10.427292  15.802234  11.872634
Pt  -15.454220   7.178253 -26.686079
Ga    6.189350  24.694673  17.237351
Al  -14.184448  -8.382038  -6.536294
Al    9.813527  15.533050 -33.088143
Be  -35.099556  -5.154261 -17.753592
Zn   -4.378221 -16.484409 -39.950143
O   -12.505897 -21.314989 -36.438434
Mn   -8.967326  14.919123 -39.553290
Pr    6.145911  24.985627  -7.777708
Ni   22.669363 -13.168487  -0.449383
As   -7.769928 -12.117646 -27.659766
Ce   21.111241  38.722988   8.958084
Ce  -12.553183  -9.891286  31.036333
Nd    1.787516  -1.649460   9.760871
Ar   17.610334  19.855203 -29.056005
Na   -1.971468 -16.983415 -29.423363
As   18.277623   8.799101  40.010348
Ce   -7.161399 -15.068866  32.542488
Po  -20.662007 -34.693154 -19.139684
Hg   23.698033   4.154073  -6.590028
C    28.548751 -23.205907  22.012372
Nb  -22.198623  -6.012836   7.137405
Cs   27.286134  -8.808978  13.051604
Hf    3.886534  -3.155291 -13.713415
Co   34.460060  12.095544   9.556456
Sr  -22.492615  29.810307  18.631716
Ni  -36.886026  24.098565  -2.943702
C    -9.299496 -12.403760  42.886937
S    31.411701 -10.750976 -24.951075
Ta   14.015422 -26.724813  -9.463374
Pb  -15.901293   2.114700  27.330140
Hg  -21.366919  24.559170 -12.923038
Rb   29.266841  -0.786266  15.054166
Cu   24.881937  -0.704835  22.670283
Sc  -13.272927   5.698227  -3.806584
As   -8.137406   6.821472  43.553693
Sb    3.160907  20.344350  -0.134370
Er   25.714048 -11.701623 -21.219769
B    14.838383  23.179214   3.933814
Cl   23.389298   0.372205 -32.082771
Hg    5.158003  34.176527 -12.469423
F    -7.546274 -23.539118 -16.672472
F   -25.834659 -17.686836  20.964408
Tl  -15.422942  37.698543  -9.419027
Tc    5.920480 -24.029682  29.219804
I   -30.475054 -14.455279  -3.450240
Te   -0.645555 -15.101894 -32.343730
Ar    0.257054 -22.733669 -11.340576
Ni  -24.341873 -10.792898 -17.266182
Re  -18.523662  21.979002   1.609669
Rb   39.904950 -18.325312   6.557590
Rb  -15.277059 -23.085156  -7.324333
Os   16.688451  11.046106   5.809337
N   -28.560206 -18.555777  12.838273
Ne   22.535695 -25.331619   6.773841
Ru  -28.506597  29.549129 -11.537106
Hf  -28.816056  -8.059151 -19.764304
Ca   24.471812   2.728026  20.182770
Cd    0.296199   1.909043 -20.798648
Ba  -24.617389  -9.694549  25.361631
W    24.985368  -7.998754   9.723804
Ni    6.651191 -36.837644  12.693829
V   -12.790773  10.960031 -36.184888
La  -27.770531  23.057552  -9.347711
O   -11.141584 -37.144312   7.756587
Ge   16.288186 -16.349430 -10.925645
Rb  -26.164523 -30.193156 -22.121962
Ti  -19.749877  18.177556  26.875735
Mo   14.433666  -0.227826  15.395496
Pm    8.537307  42.968609   2.930817
Fe  -37.608763  -4.464589 -11.739872
As  -12.344163 -14.006955 -25.631390
Sr   -9.784019  17.784978 -11.597654
Ba  -16.484117  -4.354871 -12.546144
Na   21.119629 -33.315207 -10.393521
Pd   21.111259  16.401105  -8.375998
As   10.236715 -26.891001 -34.785763
Au   17.005758   8.874456 -39.538189
Hg   18.339075  18.691614  25.740725
In  -39.895289  10.588884  17.977697
Li    1.427340 -14.920677   2.318665
Pb   14.516907 -29.591236  29.904366
V    24.975333   6.445865 -20.194786
Cs   15.715458   3.468597 -38.855602
Nb   -1.308922  32.453950  29.409076
Sr   10.268629 -25.910858   5.035082
Gd    0.365677  -6.922642  24.478921
Tb  -20.379570 -40.108947  -7.764700
Sm  -25.982421  12.661323 -15.544778
Er  -16.319005  -7.681796 -17.818056
Rn  -12.944264 -36.554541   0.281329
F    -8.250209  16.660318   1.235671
Mg   33.457212   4.732262 -21.195940
Cd   -9.334217  15.642629  32.906740
Ca   -6.073771  27.283572 -29.057915
Nb   -5.762808 -13.241913   2.837139
Ce   22.071510  -0.289294 -26.309157
Dy    2.880009  29.555705 -10.972279
Tl  -19.764945  -3.694737  13.611312
W    29.435278  24.063498  22.361522
At   -6.325333  32.521188 -25.866885
As    6.960143   1.122452 -32.815140
Pm    6.285439   9.786653   6.219931
I    -0.331588 -32.221551  14.383918
Ir  -20.519606  16.340957  12.011923
Yb    0.346213  -9.139356 -32.499291
F    -6.470655  23.376904  31.025077
Ag  -28.776357  19.192773 -19.832864
Li    9.919381  17.370523  32.462191
Ne  -17.177559 -28.618843  -5.547358
O    -2.490536  -0.316944  43.541917
In  -25.734689  23.475637 -12.118909
Po  -27.923097  30.489472   3.446442
Mg   26.652106 -28.984883  12.454313
Ne  -16.470941   8.720664 -37.563069
Br   -3.606572  -0.285914  33.149187
Tl   -1.035415 -12.420667   7.052871
Ir   37.921517   2.533142  23.019666
Sn   29.178887  26.025693   6.108045
Pt   -8.890251  -0.564011  29.157359
F   -13.820236  15.284417 -16.544347
Si   11.857809  20.998104  10.630055
Gd  -24.586244  30.100011   9.188212
Cu    9.203040  -4.700514  38.121796
Dy    7.994990  -3.420883  14.361894
Rh   21.899135  34.009146   5.528376
Li   17.376001  10.837384  19.457576
Pt  -14.504262   6.996126 -18.386385
Nb    7.415747 -30.486011  31.304514
Sb   29.585540   7.506648 -30.983360
Hg   18.000485 -12.104084 -27.355542
Ge  -32.996998   1.844518  10.320598
Pt   36.031647  21.211453  -3.539038
Pb   14.364141 -36.760889   3.721708
Zn  -19.764580 -18.561779  20.801895
Y     8.567303  19.849479  -3.525735
Rn   20.174621  12.636828   3.723566
Be   -5.550277  22.740936  -9.754548
Cu   13.665724  38.242315   8.085569
Cd   12.845696 -30.698033  26.045724
Mo  -13.207599 -14.919079   7.950597
Si  -21.787930  30.770169  22.184368
Tb   -0.717858  25.301722  31.050505
Ni   -6.451568  27.891360 -31.062517
As   19.633913   1.345681  26.307027
Be   24.418858 -24.606157 -21.704757
At  -25.171737 -23.076538  -3.632678
Y    12.390169  37.978746  -5.732648
Hf   27.374162   1.237894  -8.048649
Rh   18.827209 -17.252792  28.503433
Cd    4.931428  -5.938638 -38.395248
Si    7.614715 -10.423896 -19.056657
Lu   18.483240 -32.389304  -0.218098
Fe  -10.051819  20.761976  12.258526
Se    9.341145  12.490254  -2.142115
N   -20.700777  19.416631 -29.371339
Ta   -8.202328  31.916180 -11.535250
Sb   19.961919  17.529223 -11.246354
Cr   -4.936073  28.171815  16.922779
Tl  -18.266679 -23.132425 -26.803829
B    12.423338 -34.762872 -14.218817
At   25.095483   5.842318   9.787231
Y   -40.102426  -2.931487 -14.591305
Cu   22.389955  24.350407  23.630010
Hf  -11.246305 -11.697365  -2.385954
Yb   31.586379 -18.686729   2.481366
Mg   36.798275  20.397794 -15.657839
Fe  -20.036986  -0.132494  29.257693
Lu  -18.260718   7.655554   2.542491
Bi  -33.876044  -6.045955  25.043142
Mn   -4.393489 -40.817559   2.893455
At   22.176229 -14.384801 -21.783963
F    25.527045 -19.366462  25.076828
Ge   -8.756549 -22.002798  -1.390082
Au   -1.333854 -11.714543 -20.611247
Yb   10.289163  36.932504   8.205723
Rb    2.163322 -30.860609  23.538148
Tc  -10.094816 -17.835812 -27.227316
Nd   -8.220906  -5.903027  19.686806
Ca   36.939018 -11.514881  -0.156874
As   -2.363466 -10.100168 -36.714557
Zr   -5.716310  -5.134711 -26.435435
Ga   22.575136 -11.250575 -33.304896
Sb    3.659232   1.339158  -7.934402
Ho   20.294114  24.335173  -0.477198
P    18.484629 -10.376707   5.083033
Gd   26.593321 -26.369129  -4.244090
Na   19.437211  28.647604   2.446020
As    6.868268  -9.933993  -9.315926
Cl    7.165925  25.615641 -32.821348
Xe  -34.360747  20.020690   9.451231
Tb  -38.637027  -3.877969  -2.290881
Te   -7.839566   0.121759  27.139989
Ar  -34.456875  18.616724  12.141385
Pm   35.587233 -16.274118  -4.965071
Co  -37.376080  22.142543  -6.099221
Cr    7.501626   1.663573  29.195803
Mo  -28.236620  26.901594  -5.385114
S     6.684798 -15.088847  12.587654
Mg   28.937809  32.465900  -0.296368
As  -27.711946 -20.655230  -9.835294
Ag   -4.607432  21.210086  29.792312
Rb  -32.609266 -20.712624 -15.995579
Si  -41.551749  -3.579976  18.192548
Cu   41.943635 -16.417759   0.997524
Cl   11.588854 -13.549340  -5.429381
Tl  -11.693472 -16.804849 -38.664881
Al  -16.128129 -31.245028  15.809460
Pb   26.918693 -20.956803 -19.673658
Y    -8.102168   2.291029 -42.379879
Mg   25.878944  -3.044529  16.535980
Ir   41.144406 -11.256753  -4.804604
Ar  -30.254606  14.499620  26.548395
B     6.949294  22.598778 -38.003496
Ar   -7.871136   6.072548 -20.333182
Dy  -10.255946  -2.352096 -14.769047
Tm    4.147065   8.761009  -3.929273
Cs   17.420948   7.457243  28.289249
H     2.548435   1.755287 -44.228344
At   10.252599   5.622783  25.340412
Zr    2.865119  31.789632 -20.998892
Mg   -0.536396   3.005234  39.194187
W    28.441339 -29.172312   5.665270
Pr   35.028767  -1.720698  10.346517
N   -42.527029  13.141566   7.220453
In  -21.074867 -23.904940   1.322930
H    -8.182957 -43.177437  -3.518160
Ge   35.619062   0.210369  18.450845
Xe  -34.492172 -20.820686   1.387926
Gd  -19.820016 -18.924671 -22.419366
Ti   22.966852 -34.044095 -14.181671
La   37.504612   5.605857   5.885409
V     2.790096 -11.158914 -16.805375
Tb    2.797043   2.892041  25.433728
Pd   13.590718   6.323206   7.852322
Co  -12.254101   1.153427 -19.584876
V   -28.244847 -16.758113   1.326166
Po   -5.938543  25.848746   9.905268
Ti  -21.836661 -34.807388  19.248915
Y    22.693878 -31.173875   3.654664
V   -28.442581 -25.627062   3.075560
Sb   33.500941   3.982694 -23.602702
Pd    6.280213   7.574230   4.283415
Kr   14.001485  11.260290 -20.501844
Sb   17.012878  18.784611 -10.353662
N    28.286702   8.134276  31.922480
Cu  -25.247091 -36.579539   5.254280
He  -29.702901   3.132828 -10.570010
Ne   20.132269 -36.142440   9.215985
At  -21.846786 -39.824882   4.829553
Pb  -32.892312 -19.952495  -9.998456
Po   13.674854  25.449758  -2.517466
Co  -16.371526   5.909656  27.357146
He   16.500643 -12.928968  -1.055829
Si    4.266676  31.995169  12.069706
I   -26.069543  13.481241  17.283323
P    34.791018  20.444958  -7.575219
As   37.860439   4.010982  -9.287721
Zr    2.818321 -33.639018   4.496720
Ru  -22.600558 -14.476252  17.635582
Tl   16.788487   7.001348 -29.884368
O    25.549793   8.502649 -28.639562
H   -25.606073  -7.222220 -30.833379
Cl   34.956636   1.579709   9.899567
Ca    1.724536  16.997153  26.166910
Tl   -9.117012  29.452792 -18.819213
Nb  -22.821970  15.615896  -2.762824
Be    1.706482 -40.185312 -19.624313
H   -10.050013  16.158241  29.781624
Ti   -0.097971 -15.133190  41.149399
Ag   17.962925  30.480057 -27.040542
At   -9.297670  10.555605  15.948972
Os  -16.121540  -0.492636 -21.034488
Zn   39.663839 -14.314916 -11.911965
As   17.247627 -25.983866   3.264503
Ni  -33.156969  -6.565123 -18.516281
Rh  -16.390988 -23.717229 -29.851427
P     1.664471  18.066053  17.598723
Ne  -18.774567 -12.566276  35.015344
Sb   36.628167 -17.561971   5.480870
Pr    8.207132 -36.399130  17.497733
Tl   -4.138167 -29.700578  -6.563418
V   -24.511792  -9.981479   6.363122
Be  -11.286352  34.444867 -27.346973
Zn   28.057194  29.650014   6.791365
Ne   -2.411635   5.785354  25.175179
Zn    4.599673  16.984870  24.137921
W   -38.113287  -3.806796 -18.388805
Ca  -36.115718  19.264677   0.925019
Be   15.060347 -12.874644  30.665004
C   -28.445020  25.856585  -1.103976
Br  -12.744227  18.955425  37.848920
Y   -33.365025 -21.609362  -2.873634
Ba   22.506915  24.266999   0.130996
Al  -21.544851 -29.472371   8.219573
Au   16.987877  24.601799  15.886785
Ce   -1.045937  11.888147  42.844118
Ca   41.366878 -13.742295   3.883602
Pr    1.946705  15.655512 -20.744135
Nd   26.491873 -14.737398 -30.477835
Pr    3.425211  22.156237  30.036414
Gd    0.608070  -5.173138 -18.972131
Ga   32.202947 -19.407170  23.502505
O    29.813770   6.616189  14.379667
La  -27.566619 -19.824052  -5.276775
Po   34.418308  -7.072310   3.744775
K    17.514536 -32.352634   1.126528
Ar  -19.319407  16.573243  28.941265
Ho   -0.343847 -15.467805  -9.113515
Os  -35.475602   4.251219  -0.873400
H   -22.568849 -27.796039  -7.791898
Fe   16.851019 -29.431312  -2.909351
Se   -5.496861 -19.203263   5.546555
Sc  -23.731715  12.361077  23.756431
In   -3.403955 -18.771213 -13.564218
He   31.486862  21.732599   1.778000
Pr   19.281502 -30.874282   4.876991
Cd  -23.395635 -10.016047 -19.967065
Sr    5.360948  16.732434   2.117227
Ni   23.989604  -5.731663  16.246512
H    32.548983  -8.566543  30.067403
H    -6.207436   5.689994 -37.650884
He    3.104997 -11.677716 -30.246120
H    11.450215  40.888223 -16.594643
Ti   16.921571  24.114672  -7.006503
Cd   25.940808  -6.136059 -27.805113
At   22.859963  -3.282527  12.456713
Pd  -20.147631  -9.066971  24.608844
B    22.738341  33.599040  -7.407298
Sr   -0.068581  42.337311 -11.531840
Pr   -4.509585   3.938483   6.195959
Os   30.296042 -20.096000 -13.080753
Cd   13.482648 -42.306164  -5.223548
Cr    5.478055  24.929881 -31.722342
Li   -6.262581 -29.229206  -9.317497
Re   16.935415  35.123196 -13.542863
Ce   20.237568 -21.989009 -21.973994
Cs    0.584678 -44.497727   1.465967
Cr   -2.606203   3.519796  17.299419
Cs    4.877474   4.857679 -42.726382
Pm  -31.255558  -2.218575  18.734537
V    -8.988149  34.529946  -8.545613
Au   25.601741 -32.348618  11.043774
In    7.542184 -13.521701 -30.537023
Ru  -13.153175  10.028448  25.821649
Cu   28.653668  -4.132635 -15.162163
Cd  -14.992074  14.348575  12.044062
At    1.142828  42.986486  11.744916
Sb  -32.382023 -14.316810  22.897635
Ba  -10.114292 -15.144758 -40.369279
S     8.009388   0.836425 -17.798932
Ho  -17.327303  -5.189740  -1.332775
Ti   25.848061  -3.432492  35.554910
C    29.790591  -3.715727 -30.164871
Nd    9.803689   0.924322   9.084594
Nd   -2.677713 -22.529497 -30.393357
Ga   29.311668  28.005512  -7.477554
Zn   -3.835177 -10.680076  -0.546846
Be  -16.870875 -13.795757 -34.086844
Te   -1.748649  32.853880  28.687448
Ca  -11.799780  -5.057242  35.632302
Nd   20.325062 -37.675412 -10.850673
Ge    0.044989   6.550815 -38.396119
C     2.053618  18.625426  24.512357
Er   -8.687653 -30.944908  14.116991
Al   11.084008  -8.363051 -26.959221
N   -12.254687  -5.548530 -32.581063
Cu   -7.144312  19.592328  26.106544
Hg    0.328907  -9.912908   4.121755
Ne   14.405536 -37.776756  -3.673213
Mg  -23.799681  35.697050 -11.225812
Kr   -5.997859  43.391492  11.741111
Sc   30.119858  -2.385352   8.474427
Rb   39.790479   0.635689  17.555087
Cl   -5.831040 -21.080310 -23.797097
Rh  -10.790940 -42.088534 -13.505251
Cd   25.743995 -17.225273  32.791447
B    -3.933474   3.842043  22.482247
Be    8.991506 -39.277730   1.309062
Nb  -22.183575 -13.050556  24.290016
Tm   -1.484594  29.969954  24.149145
Pd   -0.506411  32.513804  19.278642
Ne   13.438393 -30.748537  28.736286
Ta   11.616272 -34.721005  -7.894428
Rn  -22.598444  -2.644460  30.712133
P   -24.025160  11.821957   4.177799
Zn   20.880671  14.731029  -3.322798
Se  -40.424300  19.269261   0.183392
Hf   -4.356044  11.172032  28.748413
P    24.320247 -24.850614  11.707806
Li  -30.653613   7.055877 -21.350188
I   -25.255759 -27.794581   3.056724
Mg   16.921486  15.033651  -1.339731
Pd  -23.775957   9.463087 -33.774539
Mg   -7.670169  11.650831 -42.399074
Rn   15.531525  40.189832   1.732760
Nd   -6.388015  34.718230  -0.012898
B    -5.125815   7.882617 -29.755143
Sm    3.738303  -5.666322  -6.036853
H    12.762984   1.818338  24.318886
W     0.960045  32.830554 -19.771659
B    -1.217953 -32.646067   3.114485
Mg  -23.267494 -25.791721 -27.411855
He    8.725336  14.734835   6.995886
Yb   34.060658  20.136269 -13.257664
Ag    7.074922  11.073067  13.268536
Eu    8.468783 -26.347831 -20.984811
Pd   31.395677  21.107644  -2.584359
Cu   -0.381669   5.102453 -37.838696
Tm   22.255133 -28.450672 -25.342303
Pm   15.026691 -29.849881 -24.189930
Sb  -16.413633 -31.771879  21.911956
Mo   -4.617576   4.014683 -29.352373
Rh    8.544157  -2.982197 -10.789743
Cl   -3.709330  15.994954  11.780717
Br    3.374776  -9.476108  42.771374
Os  -32.808897   0.952916 -17.467605
Mg  -43.014483  11.106849   0.603551
Sm    4.384544  17.901810  23.343064
La   -4.213252   0.372531  35.629571
Ru   24.492997  -2.819541 -20.642144
Gd   26.357390  -1.061500   1.769511
Te   -7.046092  22.526862  -1.284989
Zr   25.635781 -11.924590   2.260375
Sr   25.097406 -14.547439  10.831031
C   -14.686045  30.035489   1.835937
La  -19.404859 -15.762928 -32.004535
Sr   -2.690787  -3.933093 -25.986185
Cl   11.550833  23.139395  -9.125671
C   -28.352971  28.039503 -13.218506
Po  -10.467008  29.435037 -15.209106
Ho   30.416691 -17.225765 -19.203591
Bi   -1.220228 -36.690084  12.242639
Na    9.858943  18.518488  23.051691
Ir   22.990039  -1.849913  17.502760
Zr  -25.245399 -10.921924  16.419633
Pt  -28.283855   1.117046   9.750564
La  -14.869802  33.407858 -10.901786
Se   25.318663  29.171661 -18.799476
Tb  -12.110331  38.935007   7.350578
W   -15.284875  38.708885 -16.552707
Ga  -24.718955 -31.464437  17.112283
Tm  -14.728476  11.431587 -11.966205
Po   -0.348918 -15.966867  31.159212
Pd   30.126344 -20.961319  17.800202
Br   -7.803023  22.774659 -18.951137
P   -18.813063  15.083887  36.792827
Ce  -35.941444 -12.452242 -18.993389
Nb   -2.047924 -20.280355  11.176860
Ru    9.877543  -1.316756  18.867555
Gd   33.961996 -22.996480   7.849129
Be  -17.050856  29.408544  15.272822
Fe  -33.308316   3.967326   7.385736
Fe   -7.227038 -41.782272  -4.946225
Ta   15.502626  30.072245  19.606279
Ag  -20.071175  34.623356 -13.654810
Os   -5.945848  10.198894 -31.390767
C   -24.272779  23.692498 -30.576991
Si    4.352904 -20.398875  27.711421
Si   -8.038227  28.234451  31.056407
Xe   11.021105  14.068493   5.108627
Zn    4.876878  -7.438544 -33.641950
Ce   -2.240663  -4.922095  22.591194
Kr    7.265804 -32.158607 -22.961263
Kr    5.225634 -23.383498  34.893178
Pt   -4.526211   2.132662  23.545588
In  -13.224418  36.697248   4.318398
Ge  -19.889927   4.234469 -18.053052
Yb  -18.327571  25.145860   6.604001
Li    0.882075 -34.352332 -17.962461
Si   26.162461  -7.466468  23.027665
Gd   11.119282  35.686141  19.935454
Hf    1.153487  27.902870  33.198206
Yb   20.390292  -0.938080  39.885389
Zn  -13.871372   6.872570  22.266619
Hg   -3.972762  24.221295 -22.297594
Dy  -37.152532  14.841715  19.688992
Sb    1.242201  17.648587 -14.848355
Ag    6.559443 -14.610894  21.088225
Rn    7.693414  -1.005008  30.660741
Ag    3.372706  -5.866477 -40.079803
Er   16.255558 -31.754458  23.458995
B   -20.820316 -18.402644 -28.554199
Tc   33.954382  12.258563 -20.942228
Cr   19.903266   3.914233 -10.438382
Ag   -2.362497   3.638893 -34.281352
Ne  -33.056404 -27.239980  -2.501083
Br   18.524716  28.341828 -21.299791
Ar   -1.064065  38.368386 -18.148236
Ho   38.403280  -7.494726  -2.921502
Ir   -6.156986   2.033808 -27.231881
Rb  -10.216732 -42.701740   1.932588
Si   24.267907  22.647760  -3.659371
Tm    9.521162 -11.048909  30.296975
Ba  -28.727379  16.391915 -12.240262
Rh   27.248230 -26.906449   5.233304
Br  -29.006422 -15.926281  -4.165956
Tc  -31.739871 -15.843519  -3.125755
Se  -38.217267  -0.514191  17.764463
Be   -7.919827 -21.694429 -14.766515
Dy    2.946243 -15.054936  11.752148
Ag   21.301629   8.795216  -1.537837
Ga  -25.630139   8.296906  32.084897
Er  -14.986989  37.454659   4.349551
Co   13.601284  -8.642546   1.006833
Pm   21.663964  11.519294 -35.436546
Zr   23.744044  10.387851  17.367724
Se   28.339910  -4.074715 -28.928166
K   -22.963489 -11.347119  19.611733
Mg    0.281568  -1.358547 -30.758977
Na    4.814602 -17.423920 -37.732896
Ge   29.874038 -12.093240 -15.286827
F   -44.020757   8.595457   1.716820
Dy    9.507917   9.430174   0.105996
Zn    7.938337 -22.766610   3.720074
Xe   -4.524615  -6.031350 -27.646535
Tm    5.392661 -42.018048  -5.550913
Tc   -3.446327  30.230744  16.208434
Cl   29.578755  12.486650   2.267386
Sm   33.569694  10.620689  27.218491
Ne   15.740308 -19.457203  36.941121
Cu  -35.114496  -8.982667 -20.702232
Rn   22.727443   7.357413 -27.381029
Nd  -33.474662 -22.382681  11.522273
Cl  -25.917172 -14.026088  28.295602
Rb  -26.412511   6.357763 -12.137066
Re    7.929700  22.485503  -7.261193
Nb  -17.866700   1.419734  15.342752
V   -35.723529 -12.422278  -3.116978
W    24.601223  18.558677 -28.525012
He   33.324361   2.818533 -14.236343
Pr   27.974557  12.339669 -29.235735
Ir  -20.035959  27.392105  -3.466815
He  -25.335721  37.433461   3.924924
Ho  -36.752563  12.112945  16.279449
Co   18.661266  -1.334504  13.683349
In   -5.717600 -15.569450 -37.764061
Nd  -37.054694  15.684485  -8.380209
Bi   18.917885   6.324577  25.318154
Hf   14.994997  -1.467332 -31.749651
Si   14.760180  32.526590  -5.343729
Sb   15.023309   5.475207  21.698113
N   -19.225207  31.708728 -19.522454
Li  -22.179834  15.171766   3.186707
Hf   25.982964  -0.228640   0.911652
Bi  -18.767228 -24.149357  31.070739
Yb   22.366449 -19.543406  17.074362
Ne  -22.845153  20.017567  21.544689
Tl    5.823643  17.632487 -31.479137
Y     4.032350   3.418688 -20.737718
Ti    9.012026  42.861989  11.071116
Kr    4.136211  36.751737   6.332871
Ga   25.157152  26.802027  -0.578767
K    19.142091  -4.563652 -37.600307
Ta   -4.725779  30.718996  26.234209
Pm   11.473781  13.310988  41.055957
H     5.358350   9.605667  -2.657494
K    12.228226  -2.434459 -19.963003
Bi  -11.755889  -9.529196  26.923931
Nd   24.849797   6.187794 -11.595332
Be   14.799694  29.391724 -24.416086
In   18.093626 -24.290578  -1.488189
Cu  -29.657135 -12.838328  20.847530
P   -15.105941 -36.725846 -20.605782
F    -1.592956 -11.297857 -26.092374
Cd   34.859921  -1.115494 -19.642031
Ne   -7.448305  -0.755129  37.660223
Sr  -12.296091 -19.946737  15.282951
Ar  -27.758088 -12.707374  16.155684
Ba   26.430629  16.730003 -32.656584
Co  -18.911873  -5.990884  27.761265
Ho   30.764322  -8.149653  -0.202734
Y   -30.962646   3.106034  -4.637313
Nd   13.720987  -6.091400 -17.185029
Co    9.759167 -33.956564  25.087904
Ta   16.066217   8.004901  41.975068
Se   21.868101   3.123458  -8.228216
K    35.191483 -27.810164   2.577580
Nb   -6.977274 -12.064359  14.798434
In  -13.061325  34.047100  13.033538
Tm   -0.517147 -42.251639   6.642260
Ho  -23.046113  -6.977564 -36.647850
Eu  -10.828008   0.787409 -22.897513
Nb   20.107662 -35.964332   3.682973
H    17.308952  12.045545  38.804791
Cr   30.700765  -0.144030 -32.386680
Rb   -3.396427 -15.679383  34.298612
Mn   21.030879 -24.386058 -14.549526
Ru    9.108629 -17.634832   0.517398
C    -2.377654  -9.635193 -37.574493
Zn  -13.375152   5.435899 -12.587522
Al  -22.808211  21.811674  -9.220045
Ag    3.950713   3.173779  10.543956
Tm   22.744889 -12.684353  31.471729
I    45.297975   4.621802  -1.278715
Mn  -24.835470  -9.350999  22.192578
Nd  -25.646671 -27.678437 -25.459356
Te  -29.325174 -30.945614   4.458931
Tc   -2.017730 -15.741221  16.370134
Cl  -39.388090 -12.588708  14.489158
Ne  -36.816782   0.428506 -16.069652
Sr  -12.856052  37.550191 -19.767407
K     2.941030  21.014690  23.798645
Rb    7.277005 -20.433809  22.665074
Co   35.120567  21.288510   0.966706
Zn   23.508884   2.623135  34.965801
V    31.094932  16.579457 -12.962896
I   -35.084905 -11.840607   5.030814
Kr   29.783256 -20.576237   8.763795
Pm  -42.463124 -15.405085   4.735779
Po  -17.085489  -9.505024 -10.803884
Sr  -27.370295  18.237570  24.788999
Sb  -20.243501 -17.414626  19.402957
Ag  -44.332503   5.340184   4.302118
Po  -18.566996  36.901974   4.463155
Mn  -35.666654  11.917668 -10.007636
Tb  -27.270873  26.463939  -9.263662
La  -15.727468  24.609958  18.143127
Zn   -6.865941  10.146168   0.965057
He   -2.847385 -39.792895 -20.220566
Lu   11.007631 -10.436217  15.598430
Cl    9.923248  43.556349   9.351236
Cu   33.484993 -25.796510   0.062797
Ti    6.608141 -33.576752   5.982129
Ce  -31.834497  12.318056  -4.218741
Al   -0.819152  30.220823  10.090263
Sc  -26.687475 -15.335834  13.871945
Tc   -9.935340  20.758621  39.254425
Ti  -12.008827  29.400722 -24.735482
Cu  -10.574832 -29.930425  -0.935389
Si    8.386748 -40.028986  13.520251
P   -10.566827  12.414980 -31.114415
Sb  -36.458420  18.109795  -4.698080
He   -8.527979 -11.215570 -38.353266
Re   27.272817  27.948528 -10.741838
Ge   -1.567956 -24.035403  18.481608
Hf   33.891356  -1.804177 -13.731894
Ba   -5.488391  24.799906  18.270623
Br   23.188848  -7.800438 -13.190382
La  -38.493634 -17.122822   7.046351
Pb   33.857856  -3.358096 -16.848320
Na  -18.251547 -25.490754   4.021122
Cr   15.474219 -32.986983 -15.725572
Cl    0.874952 -17.823017 -13.722824
Fe  -20.325455  26.535437  30.942402
Lu  -14.237473  -9.301592  19.175197
Kr   -6.358602 -25.791601 -17.468567
I    14.709549 -23.903008  22.864810
Ni    5.462075 -16.082806  28.230206
Zr   18.375574 -25.636198 -12.123388
Pt  -23.567456  11.568541  34.619183
Re   12.298305 -23.125263 -31.047354
Sr  -27.377206  33.046801   0.716967
Sn   13.285793  -0.622148 -33.514533
Al    9.177944  13.267004 -20.482526
Ag    5.310745  18.707704 -39.568049
Te   -7.032659 -22.586871   2.059005
W    -8.321772 -23.453189 -16.930701
Na    0.552178 -43.481213 -13.696925
Rh   -4.622348  -6.877024  41.688477
Eu  -10.849769  30.446179  21.983623
Fe   27.966432  -4.296989 -20.052356
Ba   -3.165897   6.608593  30.420454
He   43.400401  -4.899179  10.300192
Sc   -3.352768  32.502415  15.116516
Pt  -28.235783  -4.545384  26.134816
K   -37.329214   8.997588   4.048481
Ru  -36.356887   9.103635  11.010453
Hg  -12.178877  33.553354 -16.560631
K   -24.412023  -4.931732  35.983839
Ge  -20.704855  -3.469670  -3.773646
In  -30.119102  -3.239983  -2.348330
Os   30.461830   1.957657 -33.772091
Kr   31.288006  -4.792669 -31.900145
Kr   -8.306148 -14.332909  28.733294
B   -20.929177  10.742656  30.883421
Zn  -19.588230 -22.748249 -29.331147
Tb   12.378210 -34.668597  23.624828
Ge   14.428430  11.552070 -21.232492
Lu  -39.851565  12.923221  12.800038
Sb  -26.649440 -22.701331  16.201990
Rh  -31.440861  -7.461308 -29.967931
Ru  -44.945995   6.216412  -2.373636
K    33.362566  -6.375300 -29.803836
Ne  -37.098787 -14.151104  10.558639
Nd  -19.444614  11.161216   3.602295
Dy   29.823793  -0.618610  14.274909
Ir  -19.972513  17.527568 -11.510344
Ho   30.537921  28.342055   5.934366
Pb   29.737990 -19.483381 -27.528968
Li   18.322598 -33.953859  12.193227
Eu    4.365113  32.845124  -4.544628
Cl    7.940329  -8.511455  29.344928
P    -1.107650  35.330275 -16.875924
Rb   36.413042 -17.884689  14.861460
Cd  -11.934137   7.573467   0.108113
H   -40.721732  13.701935 -14.558584
Mn  -38.629620  -0.439698  23.137129
O   -31.152718  30.803192   3.325370
Ni    6.075620  23.313384  -8.279951
Yb  -39.831585  19.277001   3.938139
O   -40.384537  -9.026443 -14.904168
Lu   -9.338258 -12.081258 -23.093036
Mg  -24.993345   2.424357  27.078292
F    -0.097944  16.171744  -0.408772
Al    5.274800  29.118873 -16.763970
Ne    4.279879  32.038152 -14.621288
Tc  -15.347677 -12.751824  31.018936
Ir   -8.514324 -18.575169 -27.216743
Yb    4.565614  21.126785 -39.183106
Al  -20.663590  11.143937 -35.410091
Po    2.082838  12.133819 -36.061284
Au  -20.734789  18.452305  33.595658
Pb   12.324944 -22.325469 -19.804435
Se   12.707822   5.726858 -31.285994
Sb  -19.971478  29.457630  22.087701
N   -23.777439  15.011184  -6.216803
Pr  -12.014793  27.548051  16.887513
Au    2.342951  34.484775   1.161911
Po    5.216270  17.211740 -24.304239
Kr   26.670497   4.550710 -24.695375
Ru   -5.848151  38.431956 -10.640134
Xe   15.648078  -1.418390   1.214303
In  -14.196901 -28.137403  -0.375513
N    16.744944   3.683379  -8.300610
At  -31.642719   0.336479 -23.285447
Tl   -0.242614  35.353868  -6.564360
Si    5.152834  -9.647463  42.331971
Er  -23.009746 -23.188690  14.351104
Fe   39.050586   3.302058  13.658377
Ba   -5.073812  -6.179690 -19.754379
Hf   14.737942   3.086692 -14.373762
Ce  -18.933391  -6.436588  37.061413
P   -31.063295  21.049338  14.363539
Sn   -1.473785  -9.092112  -5.185576
Ir  -12.245123  10.868740 -41.123665
Pt   27.434056   5.798706  19.169880
Os    9.869243 -21.599971  18.340500
Au  -27.837997  13.492677   2.249173
Si  -37.750484 -12.970999  -2.421168
Kr   -5.083780 -43.262568   0.894209
Zn   25.603132  20.388370  29.487672
Se    4.253435 -14.998010  22.268964
Ho  -35.865415  10.970934  -4.207729
Br    4.424900 -10.185480   6.345926
Ga    4.010214  19.781103  -2.097416
Ne   15.560669   2.364964 -27.367103
At   -4.500367 -13.443249  22.791684
Cr   17.250324  36.719724  16.568937
Sb   34.255115  16.321970  10.279170
Pd    9.659498 -26.151378  29.082661
Sb  -20.261548 -23.313963 -14.485847
Zr   -8.141863 -28.936651 -22.617731
P    -6.229394  40.814226  12.144047
Bi   16.374561  -0.585381   6.937032
Pm  -28.349508 -26.541492  12.359480
Pm  -20.234463  28.139752  13.419211
Ni  -14.917270   3.090155 -42.590035
Zr    6.332658 -27.680657  30.404769
Pd   34.815791  18.113234  -9.316781
C    19.566048 -11.732674  20.410165
Lu   -9.255988 -16.626304 -21.536539
Pr    7.479540  20.058775   5.385529
Cs   -6.795654  38.060465  -9.966129
K    18.887431  24.258116   4.206584
Sm   25.948299  23.986323 -15.968784
Co    3.826146   1.049314  27.581068
Sc  -23.840466  15.236735   0.622362
In    5.664482 -37.115839   0.092270
Ag    6.944341   3.256158 -36.721958
Xe    7.345161 -24.000693 -34.412871
Dy  -10.282450  28.489363  14.989128
Kr   21.443694  14.366802  22.403349
Sb  -12.888851  20.208420  38.516228
Ni  -34.570540 -11.535650  -5.016576
Rn    2.767541  25.603867 -10.809768
Ag   13.317830 -34.863112 -19.604026
Ce  -13.622321 -20.428307  32.137711
Yb  -13.595720  25.779899   5.716959
Ar   19.015534   4.319008   2.399611
Ni    2.655985 -14.220961  33.470063
Er   -8.070175  11.743990 -17.617052
Pr    7.843641 -18.088357   5.176568
Tb    6.459553  20.162146   3.165583
He   25.919083  -2.346356   0.856950
Ti   15.336357 -10.006699  -6.446067
Co   29.326538  29.600303 -10.913258
Cd  -26.108489  13.569353 -12.876721
Si   12.353194   1.946572  32.450873
At  -41.292568  -3.207200   1.771547
Li    8.428313 -19.545135 -26.153114
S    -1.528046  10.860542 -31.793645
La    3.851309   1.372725 -37.393487
Y    10.032342 -20.685120  12.063314
Sb   23.563971  -1.883845  10.024905
B   -31.191791 -18.740846 -19.565974
S    15.677754 -12.129997  -8.422719
Ne   -7.360105 -17.398678 -11.246878
Hf   17.796366  29.869824  16.324389
He  -21.533224  19.352628   0.119306
Hg   31.909096  16.996075  21.896457
Nb  -15.941026   1.627787  13.249123
As   27.232508  -3.594619 -31.587620
Sr  -12.417336  20.463806  -4.002842
Pm  -15.914674   0.284787  -5.947458
Na   34.655881  -5.012676  -7.959215
Na    9.862011  19.230009 -26.252142
Y   -35.777668   5.865359   5.850088
Cs   21.278241  10.445430 -15.187376
Ca    2.342654 -22.339136 -39.613978
Cu   29.445215 -12.242549   9.721711
Gd  -15.328510 -33.153181  27.013501
Tm  -24.038797  28.429463  20.313118
Ar   29.879411  16.785808  -8.852912
Ce  -21.462289  -2.015936 -16.114864
Nb  -16.961387  -6.170403 -30.262108
Ta  -28.845108 -17.812447 -20.448463
Ta   -9.773908  -7.132546  32.123033
La  -43.306402  -0.053696   3.320108
Po  -11.573076  36.223306 -11.861357
Nd  -23.192690   1.774513 -35.637240
Ce   -1.484026 -33.247361  22.207220
Nd   16.984779 -27.510537  -6.173736
Na   28.774508  -9.658116  20.886319
Lu    1.351564  -0.987094  -9.818125
Rh   13.523207  31.712335 -25.981026
Xe   30.539455   2.555887  13.936336
Nb   -8.801830   4.933779 -14.080775
Er  -45.241640  -1.294390   1.263992
O    -8.440690  15.568875   8.610742
Tm   13.753513  24.704846  23.263431
W     5.463695  -0.932159 -40.434328
Se  -17.989390   5.983469  28.674909
Nb    8.630567  21.513819  31.663581
F    29.327456  12.518489  -3.743247
Cs   21.804314 -32.569687  17.758337
Sm   25.197650 -17.541060  -7.153672
I   -15.422111 -24.121485  28.438370
Yb  -11.039770  37.207899 -20.069334
Tm  -10.025593 -10.740458  14.843676
Na  -37.792165 -20.667730 -12.098483
Na   29.486080  10.686913 -27.225342
Fe   15.762228 -28.539890  -4.853355
Ca   42.082678  14.160601   6.415239
Ni  -34.802232 -12.006043 -24.567590
P     6.937173  11.112043  19.893869
Ru   34.879264  11.562781   8.733874
Mn   17.511766  -9.045209   7.796357
Be   30.015287  24.162371 -17.961741
H    28.522191 -24.534629 -23.687479
Re    8.748680  34.834453 -22.083887
Br   27.577450  -1.630038  23.898524
Co   26.728218  30.076136  -9.898176
Si   42.920895   7.270671  -4.353955
I   -11.042678 -24.038754   5.772374
Eu  -17.750753 -13.987261  10.829940
Rn   -6.327844  32.448471 -20.834473
Sm  -37.359713  17.576212  -2.373538
B   -35.769669 -10.556922  -8.522608
Ag  -25.699161  19.184598   7.146015
Ba   22.489874  -5.378606 -36.617020
Se  -19.127503  20.309656  -3.717452
Cu  -26.996308  10.827207  31.056873
Tb  -16.478166 -28.732602  15.567702
Tb   19.482139  -7.310288 -14.602593
C     9.069093  21.270277  14.449082
Sm    9.443746  -9.725277  38.263497
Tc  -11.972098 -22.515234  21.752366
Rh  -15.623012  21.706991 -29.670128
V   -19.171954 -16.855841  11.347714
Pt   14.273129 -17.466616 -12.869481
Si   -6.515509 -22.168194 -16.069630
Nb   -1.918807  18.913616 -35.020297
Mo   21.901586   8.363458  37.818953
Mn    1.648897 -31.387294  29.287158
Po   12.361015 -23.585614 -30.350860
Pd  -20.735933  -7.219500  16.181623
Bi   35.695792 -14.484066  -8.529673
Kr   12.017356  -6.197568 -12.591901
K   -21.702341  14.375791 -28.205348
Gd    4.802829  19.273046   9.467366
Pd  -36.704111   9.749025 -21.828303
Cr   41.741919  -3.413633 -16.329054
La  -14.947291 -19.195478  37.966431
Ag  -27.260742   0.255998 -31.292974
Pt   26.625292  -8.143605  20.640000
As    5.241979  -9.992680 -33.286133
Os  -21.215391  11.183661  -5.369404
S    36.116768  -5.058910   6.141179
He   27.254965 -30.978284  -3.580565
Co   -6.666256 -11.562780   6.372923
Se   16.755608 -13.564470   2.162556
Nd    7.654735 -17.006710  -6.122556
Lu    5.868095  20.671932  -4.592762
Ne    2.229245  11.654884   9.191169
V   -18.402224  23.312841   9.133750
Rn  -24.565677 -27.510880   3.483407
Lu  -13.476958 -23.193689  23.110070
Po  -12.789613 -31.980829  25.874403
Rn    9.114083   7.313526 -38.048791
La   -5.902201 -20.736860  36.271071
Te   18.874413 -20.459275 -24.524959
Mn   12.576668 -11.279522 -19.756915
Sm  -13.669921   7.620879 -20.719533
H    -8.558166  -1.198964 -44.724356
Sb    1.999796  -7.626035 -29.905191
Cd  -18.287109  12.756786  -5.569811
Pm   32.928100  17.528799 -13.605008
Sm    2.688347 -15.650703 -32.499114
O   -16.035374  -7.438693 -12.790518
As    2.922129  14.746833  31.143378
Sm   -0.316508  19.472751 -25.951847
Sb   17.337117  29.413811  10.519387
As   19.082132 -22.869403 -26.613462
Ir   11.849887   1.400692 -12.882999
Zr    3.748369 -12.529953 -42.908112
Cu    2.025751  42.958660 -11.892697
C   -14.067616   3.416086 -41.099449
Fe   23.795652  36.577819  -0.663467
Sr    7.867138  34.709604  -7.357727
Ag    2.404086 -17.570893  -9.510727
Os   39.367869  12.098448  19.227691
Gd  -10.334997 -17.134648 -28.580648
Na   15.745726 -23.279602 -24.600440
Sm   -1.319320  10.420633 -13.888818
Ru   18.600879   7.847899   3.353314
P    19.143023  -4.377407  -3.658439
Te  -16.565932   0.767873 -16.919904
F     0.992281   1.395143 -41.116039
Ca   19.474558  -7.601304  -0.978003
K   -32.878064 -26.039413   9.242675
V   -21.309314  14.815971  34.868225
Cs  -11.223440  -8.746626 -13.953138
Pt   25.574439 -20.319681  23.873966
Ca   24.344016 -15.031127 -10.375336
B    18.658090  20.330916  -1.173676
Sm  -33.456767  -5.042721  26.534889
Os   20.410646 -10.828111  11.665438
Dy  -26.933390 -34.444614 -10.152324
F   -10.896882  27.175753  18.562219
Po  -40.829793   1.959975  18.185984
N    19.304349  -7.019784  34.763337
Pb  -11.423780  13.591004  13.491914
Sm   20.234569 -10.324581  -5.391229
Ne  -24.631000   0.436442   2.737539
Rh  -29.749008 -25.195315  -9.140635
Cr   -4.800979  27.590100  28.285115
Ar  -33.190783  -4.552071   9.636645
Rh   30.185209 -13.948228  20.936069
V    -4.142042  14.873232 -27.934997
Hg   28.133795 -14.866646  29.391634
Ne  -28.772011  29.856828  -9.260230
Mg   14.404378 -38.913412   9.849275
Cs    9.742866  21.784271  13.712064
O   -13.575201  29.914600  -9.482339
Cl   -2.185909  14.918833 -41.483773
Pr  -19.764556  11.767787 -20.803275
H    24.556122 -29.673475 -18.367270
Pb  -22.596020  26.851889 -23.058899
S     3.515521  15.482266  -1.273564
C     2.486687 -24.654820 -19.237982
Po  -29.499086   3.133156 -27.186859
Li   20.502379 -28.259912  27.476463
At   31.633648 -17.369805 -25.666045
Ag   17.846229  -1.010806 -20.989277
P    26.690546 -17.271427  17.522358
Si   34.224911  -6.633600 -10.677828
I   -30.337920   2.049313  22.758024
Mo  -19.860604  12.786556   4.899641
Zr  -20.070101  -2.723961  19.485085
Rh   24.552901  16.950080  -4.688758
Ag    8.562948   1.460674  20.009133
P    12.076907 -24.729139  16.122972
N   -44.387494   2.927663  -9.870528
Pt   19.654837   3.462815 -30.589473
W   -18.571884  15.557855  22.775780
Be   -5.467696 -35.156551 -19.110655
Ta   42.807319 -13.659687  -3.547847
Cr   28.605876 -13.114208  29.008112
La   24.081663  32.859448 -17.063341
Al  -25.808485  -6.233007  29.221331
Dy   -5.799989  19.544122 -30.778022
Ca   29.353930   1.638947 -32.402986
Cu    3.592020 -12.209337  -9.360573
Nb  -23.271704  26.280425  11.959611
Bi   13.906399  33.820857 -23.173703
Sn   23.993536  -1.930456 -30.571481
As   28.104639 -25.408221 -11.726168
Ru    2.153014 -41.285324 -16.026003
Nd   10.194850  -9.083877  15.536224
Hg   -4.333801 -26.910363   7.719747
Ag  -12.045559  27.925198  15.326400
Mg   30.522770  16.918010  -1.175037
Ru   16.625750 -26.051078 -22.557486
Ca  -31.294943  25.787422 -14.352542
Rn   25.441359  -8.611748  -5.964102
S   -26.200812   4.519822 -24.485759
Zr    8.590823   0.751459  15.128330
Te  -28.635725  26.563204   7.931345
Xe   25.804821  12.425978  35.474517
Tl   19.065549   1.085616 -37.001422
Yb   11.694631  -2.305336   0.014785
Sc   27.095304  -4.124137   8.500192
As   -5.634747 -39.141951  14.903854
H   -40.153628  14.450569  -4.480451
Ru    8.762000   1.815738 -21.906716
As  -20.050722 -23.360059 -19.834833
At   22.649966  17.293202 -17.276714
Rh   42.605064  -8.173529   6.614380
Te  -20.935077  -5.211668  36.507881
Rh  -26.596111 -29.890579  -7.792938
Cs  -11.657441  25.274536  21.844294
Li  -36.353271  23.966885  12.992426
Sr   11.872836  13.347159 -12.626058
As   35.803284   0.362005 -26.032955
Pr   -9.129787 -25.220560 -24.630781
Cr  -24.445100  15.988574  -9.987457
Sc   -2.873737   2.439880 -25.903284
Cr  -33.501239 -27.850680   5.373306
Eu  -16.768842 -31.239299 -24.905732
Tl   16.186234 -16.464903 -21.408119
Po   15.145547  -8.672474   3.980700
Hf    3.115255   3.057128  30.739355
Ta  -13.598619   7.754809  16.623400
Re    5.057644  -9.746428 -29.145422
Tb    3.647031 -24.617431 -15.089950
Re   24.913785  10.611540 -23.230605
Au  -17.083070  15.130726  -3.524926
Pm   -0.925908   8.335732 -23.131124
Pr  -10.043848  21.023832  -6.728851
Br    0.120562  -2.041416   2.140962
Os   39.465124  20.903358   0.353338
Xe   36.854512   6.823976 -21.073797
Yb  -31.945450   8.884489  10.920045
Tc   -2.585732  -9.058139  -0.178038
Os   23.122968 -28.745212 -15.121648
Ir   32.362371 -17.965705  24.456517
La   39.989167   8.768022  19.659512
F    -8.034068 -31.644411  16.307724
Zr  -28.944120  -2.287571 -13.740872
At  -27.578459   4.230333  22.569221
Tc  -17.384615  14.027342   7.257416
S    26.252473 -24.395376  19.505070
Fe  -14.381154 -39.000255  -0.605769
Ru  -13.684973   9.157142 -20.148526
Pt  -18.337317  10.696509 -27.995966
S     1.391911 -30.828460 -11.398446
Xe  -37.165544  -3.830396  15.534833
Kr   18.911631   5.114227  11.533594
Ge   -9.594833 -23.597553 -34.246486
F   -18.655624   0.172004 -34.489045
Xe    4.205879  36.249790  -3.392041
Cu  -25.435889  23.913089  24.949071
Br  -19.288813  20.378638 -12.713480
F     5.770694 -11.179098 -31.269035
Lu    8.535796 -32.998588   2.969590
La  -17.235327  13.733957  -3.479911
Er   -8.166020  25.845123 -13.323078
Mg   20.574087 -40.082623   1.985432
Ir   23.793562   5.877659  -2.164235
Ge   -7.518410 -35.886274  -3.011065
Nd   21.964237 -30.292770 -21.175730
Ni  -17.060562  -6.842511 -10.604491
Sr  -21.094696  26.291217 -28.287273
Bi  -18.646432 -13.724849  10.283053
Se  -15.439523  24.806382 -29.255621
Po   16.701144 -17.468918  -8.905741
Dy    6.670228  -4.461530 -39.161941
Si    2.556558 -22.781909 -32.025443
Cs   38.209119 -21.529181  -9.754899
Cd  -22.059337  11.533909 -26.887868
Zn  -19.919534 -15.539355  21.891169
As    7.452451   0.968756  -4.032058
Re   24.441435 -33.789538   7.815262
Bi    7.878115  -2.081142 -41.448020
Al    6.500580  -7.986486   4.204585
Ca   -4.364879  23.683793   7.311513
Eu   10.966902 -21.884604  -3.128064
Cd  -32.564046  -1.489469  -2.203620
Eu  -27.467572 -17.144724  17.497405
Ba   29.682415   9.976747   7.017022
Na    2.565108 -32.410253 -28.559984
Ca   -7.210943 -15.155639  27.509944
Rn   -3.522740  32.114218  23.217034
Fe  -26.577553   5.133510  16.443157
Sm   35.740649  -2.827580  -4.076895
Na   19.603112  12.172214  19.905257
Rn   27.594034  24.868151  11.159247
Bi  -12.092240  26.599226 -22.728634
Sc   16.864325   9.697766  28.497957
Tc  -12.767952 -26.755475  -9.681820
Sc   18.186223  28.500458  18.410894
Pm  -19.992476 -12.099940 -27.102411
F    22.466344  -0.553959   5.296166
Cs  -10.146160  21.618625  -8.389894
C    23.558269  14.251861  27.439570
C     8.095721  28.606201 -22.957551
Yb  -30.254235  17.986379 -21.487518
Mg   24.826447   1.801288  32.910778
Sb  -10.468838  19.644396 -19.347564
Rn    8.060565  32.832289  30.226562
Er  -26.363694  28.242678  -7.120337
Cs   26.990792  21.706930  19.962184
Lu   25.841039  12.408383 -10.204104
Tc  -20.224380 -15.980522  -1.787256
Sc   -2.159880  -0.580665 -24.850344
Ba  -30.470391 -20.146431  25.540782
Sb  -18.481537  32.433592 -19.740221
Ti  -16.146979 -19.156050  15.072602
O   -37.819252  23.558017   4.000314
Ru   27.339753  13.529084  13.297427
Ir   23.155840  18.113919  34.212848
Co   18.467896   2.110535  30.458585
S     1.329612  27.722235   8.627624
Ir    6.064007  21.799193  12.141659
Al   10.820196 -24.631664 -21.970458
Pm  -22.011046  -9.012476  11.674626
Tb   18.496612  22.001547  -9.210256
Pm   24.337509  -2.180197  24.285476
Na  -12.721576  13.727437   9.287066
W   -16.683314   0.549092  27.060280
Ne   31.286324   3.871537 -32.733270
O    -2.711692  31.030202  24.849645
Cl  -27.513700  -2.532105 -30.996958
Ge  -16.174234  31.058604  -9.035826
Zn  -20.297211   3.698428  31.851156
Zr  -37.365958  -9.516891   0.075139
Ti    8.348753 -32.361477  18.757418
Ba  -21.916079 -24.375714  27.288221
I    22.631253  17.291029  12.957637
La   -8.115673  25.361321  36.200667
K    -0.577369   5.434194 -26.220707
Bi    8.497782  -6.765479 -42.631596
Ti    1.971140 -15.334358  14.753947
Zn   -8.047505  38.207734   2.161901
Si   10.501439  -3.420707  18.878674
H   -26.881614  29.174689  -1.415228
Al  -15.457725 -11.809206 -28.887586
Hf   31.371368 -18.056779  -3.077015
Pd   -5.371964 -27.798287 -29.732120
H     2.275354 -11.135371   4.780730
Pt   14.676332  -1.142956  27.860709
Tm  -16.901656   7.072451   3.047702
Tm   -9.583252  14.174848  17.976552
Pr   30.917543  21.769185   8.598965
In   20.729585  10.027021 -14.088146
S    -4.710598  15.133969   0.980312
Nd    5.218509   5.273032 -18.394584
Ni  -33.661212  29.286037  -8.173587
Ru   -3.857203   4.809946  26.627298
Yb    1.503907  22.594805 -34.700915
Mo  -10.478078 -21.115449  30.361179
Tm  -23.785107  36.680872   7.055579
He    0.242028 -12.465138 -20.816404
S   -14.207541   3.076459 -10.757573
P   -23.777416  16.748959 -31.614395
O   -22.216724  -7.818843 -31.142725
As  -26.629188   3.573831  15.418482
Ce  -13.474439   9.346394  -3.662565
Cr  -21.932588  -7.003397 -27.886051
Cl    2.331049  22.794945 -38.991460
Ba   -4.215227  32.716211  17.012305
Br   25.546480 -22.989222   9.337183
Fe   -1.381492  36.992559 -21.109124
Ag  -20.369479  14.673149   8.742135
Bi  -18.314493  13.960645  -1.789142
Xe    4.057883  38.672099   8.947592
S   -41.419174  -9.357833   6.129505
He  -32.864527  25.775461   7.060024
Mo   -2.696322 -28.683909   8.066482
Pt   19.228082  13.413466 -30.639850
Se   31.743336 -10.800819  12.302660
H    -2.947932 -18.387382  16.587047
Ni    2.260266  17.866301  20.562774
Lu  -17.956110  16.986185 -31.645879
Eu   -5.262143  -4.940760   9.493821
Mg   12.785626  -1.982665   4.111730
Eu   19.689805  -2.103427  15.230430
Tm   37.664375   7.001036   3.573778
Gd   -7.666173   6.271521 -31.063182
Ta   -1.630894  17.990149 -16.779220
Tb    5.995545  -3.626878 -40.249015
B   -19.623450  30.414560   5.096606
K    10.219009   5.938025 -10.175317
Al  -19.922880  23.051555  27.369539
Os   -3.514634 -13.347751  -4.546218
Ar    3.858140 -41.019024   1.872561
Ir  -32.058723 -20.736718  -5.629020
Pd   -8.701034  32.243988 -18.378447
As  -38.310106  18.195322 -12.359544
Ta  -33.206905  -1.736770  -3.171001
Po   -5.827156  19.722779   4.186352
Ag   -6.589333  22.494609  25.670119
Sn  -10.975076 -16.498294   0.734410
N   -20.691885   5.507884  15.070179
Tb   16.985285   6.764255  32.296739
Yb   12.869907   5.926393  22.116985
Pt   37.321856 -13.700956  -7.505174
W    -9.848012 -38.039082  15.664999
K    -3.491832  -5.917508 -33.226515
Rh   -3.349655   1.812028 -35.940951
Rb   11.348174  16.996676 -32.460029
Ga   -8.146633  38.663768  10.609414
Kr  -36.512496 -20.196500 -18.263218
I    20.782272  23.192725  29.070706
Dy   -1.082694  35.976329  23.818891
Nd   -2.475176  -5.912065 -30.787907
Dy  -28.878371 -22.432317 -12.214683
Bi   16.688075  19.564568  13.985940
Os    4.767691  16.550422 -25.254960
Mn   -0.923928 -38.841635  -0.543676
Ir  -24.732992  24.195378 -18.953409
Re   19.800359   8.382785 -34.476147
Ni  -10.919744   1.261215  -6.011681
Br    0.988818 -11.358273  -7.937638
Po    9.990321  35.979798  17.208104
Er   22.831972 -11.084982 -35.443636
W    30.184716  -8.416996  17.490035
La   11.844090 -35.046493 -19.030897
Tc    5.233143  18.386461 -30.872497
Sr   -8.753698  26.889092   1.165672
Bi    1.856938  29.721854   3.375727
Cu   -3.436987 -35.646376 -14.561614
I   -16.529707   8.650121  -1.856845
Ho   -2.913913  -3.483359  31.161635
V   -11.166906 -35.855331  -1.897867
Ta   10.638282  12.131148  -5.077842
Sb    3.495349 -35.560090 -10.349251
As  -22.620127 -18.621984  33.508231
Hg  -19.057254  26.109299 -21.512029
Al    2.648376  -6.496189  -5.155810
Cr    0.928606  -1.828614  34.600051
V     7.001376 -26.751233  29.435409
Ta   -8.946398  31.803105 -20.628772
Ni   -1.915738  22.453383  19.692940
La    5.142812  39.316568  -3.855169
H   -18.762441   0.686588   9.444893
Ce    8.503227  19.976839  22.252182
Ce  -14.762500 -30.982466  12.803397
Cr  -25.617170 -13.341422 -24.644131
B    -3.424813  28.128397  33.877459
Sr   30.287113  -1.540759  16.735588
Eu   16.005139 -34.805822  -7.484810
Ar   -0.925201 -34.289665  11.560852
Rh    4.196224 -22.814167 -19.805013
H     3.158349 -42.816346   2.400258
Nb    0.971697  36.938757  24.972896
Bi  -11.267192 -13.251774  37.724261
Pm    7.963601 -38.490144 -15.847328
Sc  -24.011668  -7.504606  30.071627
Li  -39.452175   3.369729 -16.283823
Ge  -34.747693   4.390373 -14.585142
Mo    0.614706  -4.383313  40.299985
Cs    3.261858  10.757048  -6.441594
Zn  -21.771728   5.965328 -11.271924
C    20.361201  -7.338603 -18.135163
Na  -20.947007  -8.037139  -0.170949
Li    1.312310  35.636819 -11.291051
Er    9.530539 -11.055681 -25.724117
He    4.108828 -27.058266   2.004339
Lu  -34.721809  -4.834793 -14.561663
Cs   -1.442456 -25.249797  21.349006
Cs  -41.669268  -7.693361  -4.421630
Au   18.497339   8.561273   8.707446
Cl   -9.803274  26.858439  14.774549
Sb    9.533218   1.611180   3.936086
Gd   14.844113   0.465218  39.332887
At   16.377937  -0.857872  35.940747
Lu  -26.451248  22.414969 -24.047355
Mn  -29.040636  -1.652906  29.021864
Ti    5.641612 -25.717504  15.817783
Sr  -39.020611 -10.601404 -16.656672
Ar    3.976571  27.288371   8.765253
P    35.952730 -11.159477 -12.113547
Nd   23.475812  -5.111336  24.149219
Be    8.820764 -20.912488   2.509408
Dy   23.614405 -18.721010  -1.366613
Ge  -29.801512 -26.727558  13.674122
F     7.993197  32.546895 -18.146963
W    23.603822 -14.974266  34.270226
La  -41.479823  -2.833194  -2.087661
Hg   33.410663  -8.319060  14.708056
V    21.939268   6.790933   6.580970
Si   28.358251  -0.671815  -9.682922
Er  -20.208730  -5.483158   9.331574
Nb   14.821601   3.511416  40.640712
I    -0.942894  -8.264265  26.824177
La    7.428934  21.856488  14.916574
Li   22.249671 -38.269111  -0.277205
Y    30.615483 -14.956152  12.315784
Ne    7.909699 -31.628290  -1.273062
Ir    6.687491  36.695613   6.794503
Ho    2.125371  -9.120687 -25.841072
Fe  -18.317141 -24.076672  29.060406
Si    8.789359  17.951580  -1.212139
N   -15.322634  12.960829  10.469449
La    4.766243  34.926996  22.037129
He  -41.098287 -11.121260  -4.452435
Br   -7.553955  31.056098 -10.184054
Pm   -9.678972 -19.363896 -20.084770
Ta  -29.286692   9.805769 -11.773539
Re   14.933455 -27.292735   7.422593
Zn  -25.207274   3.744052   7.994421
Si  -26.454636 -31.865303 -16.699360
Tb   39.147427   6.767670   8.385734
Zr    8.400028  32.224356 -29.192869
Y   -23.931659 -33.477485   9.923343
He    3.443848 -31.524410  16.433532
Cu   -9.047067  29.918880  -6.984941
Dy   33.569941  28.713388  -4.971636
Po   18.805707 -18.390640  23.699427
O    28.761864   0.940002  33.792459
Au   13.234842  30.606680   8.188324
Se    3.572054 -15.650740  -5.625999
Dy  -21.417629   1.013374  32.402894
Cu   17.582652   2.423557 -40.842142
Ge   -0.302347 -20.233581  25.003235
Rh   34.749926  -2.107564  19.888473
Se  -23.031601  19.675977   4.960893
Tc  -13.432010 -36.620333  17.275556
P   -20.376815  16.181079 -22.953133
Lu   -2.173953 -33.884631 -12.116369
Ca   -7.958870  12.467862   6.873676
Rb   34.148193 -10.080826  23.278711
Sn  -27.477506   2.509536  34.155955
Ta    3.948360 -34.665450  16.633651
H     5.435818  25.190956 -18.832720
O   -33.040774  11.572288 -13.597023
Dy  -12.945376 -33.089342 -16.639384
Er   18.498072   9.059172  19.853493
La   26.186900 -29.336420  15.319361
Dy   21.236221  20.170373 -11.403822
F    25.039380  16.216009  13.958350
Ar   29.417552 -22.844837  -4.246194
Al  -10.106984 -36.740761 -12.633984
Ag   16.563204  24.767508   9.907528
Tc    8.059740  21.600406 -14.145132
Ne  -23.192872  28.028468   1.174433
La  -21.867825  21.340281  17.715025
N     0.939256  17.362044 -29.857933
Mn    6.580272  44.222915   8.455365
La   17.311113  30.975045  10.432049
Kr    7.110624   5.441841 -41.479085
Sm  -32.451897 -29.353412   1.584964
Zn  -11.188237   9.043581 -33.893017
Yb  -40.743553 -10.734973 -15.514034
Ge   14.218053  22.016410   8.491414
Ge   40.277864 -13.387601  -0.636823
Dy    8.476891  -2.724532  38.068779
Sr   25.579107  19.745853   3.119800
Bi   -8.117872  -3.198130  36.132330
Mg  -12.393830  -9.686438  33.798389
Br    8.076738 -11.402360  30.616668
Au  -14.057849  11.117467  30.375537
Lu  -18.400833  15.299634  20.142240
Gd  -17.437746  37.805621  10.086745
At   -9.722559  37.885428  -2.171477
Sc    1.312868  22.198248 -36.289229
Eu   10.790328  36.813086  17.059481
Ne  -35.689680 -25.176099  -8.085427
Pt  -20.320668  -3.372674  38.638650
Pd  -17.923202  27.158550 -12.242410
Bi  -15.144024 -16.760840   0.197740
O    -1.812236 -35.621408 -12.618921
Nb   13.844571 -28.713117 -20.866433
Sm  -10.417790   6.680678 -35.671830
Ag  -22.044610  10.571733  32.785146
Ti  -18.992322  13.290120 -16.128929
Sn   18.642969  28.114722 -29.151204
Po   34.426329   4.537883  16.883885
Tl  -24.096377 -29.454957  20.141926
K    21.520229  -2.161995   1.045224
Pm  -14.557593 -43.158488   2.808741
Y    24.790294  10.563037   0.857176
Rn   32.006164  26.863710  -6.541128
Pb   -4.847693  21.044361  -3.636096
Gd  -16.435873   3.599627  19.039644
Po   27.334086  20.160299 -29.357803
Tm  -25.851105  10.648469 -24.090598
Ru   15.375571  14.549257  26.989841
In  -19.518703 -25.204338   1.598552
Li   28.478343  10.023139   6.904708
I     1.414299 -11.029356  23.261922
Hg   -4.958800 -26.394236  16.404687
La  -32.374741 -11.933520  -3.132894
Mo    3.275838  -2.891970   4.933189
Ru    0.161996  22.863348 -13.619200
Po  -27.903198  19.822933  29.615275
Cu  -27.233687  30.669468   9.112902
Si   40.453645  14.145440   4.792097
Si  -25.181075   6.883066   0.439554
At   24.645477 -27.461058  -8.838516
Rn   24.258601   7.360506  20.331348
Ho  -30.410597  -4.631194  26.961866
Li   12.687179  24.923623  26.605055
W    38.177129  19.594546 -11.783413
Ho   -5.149687 -15.533065 -13.878404
Ne   -1.125426 -21.860160  16.454837
Sm   31.050218 -21.228719  25.232503
Ce   -9.638907 -29.802221 -28.726840
V    -1.919979 -41.124946  -1.521951
Ca   -4.193882   2.855835 -13.269321
In   -6.320671 -30.692415  20.029200
Al   18.477041  -8.464346 -33.924910
Sn  -21.983417   3.746389  -9.150082
Zn   16.837081  26.600269   3.332956
Nb   -8.734369  27.763291  22.076094
H    14.293879 -11.276118 -20.614447
Ga    9.879319  32.401723  21.418291
Tl   17.124613  21.781650 -24.318506
Tm   -9.190297 -26.011896  32.599167
Tb   22.515648  12.844107 -12.910308
Cl   -0.896430 -26.771637  28.089472
Lu    7.165784  -4.550730  40.477380
Cr   14.316510   5.216779  35.164772
F    -6.840736  13.724433  -1.489093
Ce  -27.493588  -2.365774  15.089141
Rn   11.667178  14.086727 -31.015503
Re  -21.397246  10.027415 -26.834141
Gd    7.031961 -12.170918  29.851937
Sr    9.569926  -0.267192 -28.474612
Yb    3.766034 -37.700979  -0.630284
Au  -10.659300  -3.215084  37.041079
Ag    5.853008   8.928512 -21.644642
P    30.134059  13.308544  -1.863602
Po  -27.737301  24.477180  -7.644347
C    -5.418825 -25.016359 -14.310037
Br   19.682352 -21.285859  10.889390
Zr   22.795667  14.945318   1.771589
Eu  -40.196226  -5.811748 -10.042367
Sb   23.549497  20.593165  -0.216896
Nb   -2.950415  24.801949  -1.221636
He   35.408501   1.037076 -28.376083
Co   39.923454 -11.223199   7.323023
Li  -27.328689 -12.403651  20.043358
Sb   13.307615   1.636037 -42.724831
Ag   28.978115 -18.882213  -6.856182
Ce    2.967900   0.689738  13.575214
Cd   21.587399   3.413067 -36.262377
Ir   12.205734  -6.642377 -25.295558
Pr   34.469966  -8.623986 -27.872064
Hg    7.491291   6.270820  -1.053731
Tc  -16.649897  11.734661  37.898951
Xe    0.592766  23.852407   6.250441
He   22.418930  25.751815 -19.022899
Nd  -24.581634 -30.754717  12.173173
Ar  -12.512987  25.668397 -13.595830
I     8.850065  31.757509 -15.766944
Ru  -37.837592   1.724458 -15.491429
Al   -7.590576  29.678185  26.103622
Po  -22.852930  -4.225930 -19.563079
Fe   14.909719 -38.143808   2.877230
Lu    7.519256  38.352954  21.150782
Ge   13.458924   2.622527 -40.017788
Si    3.569128   0.899879 -23.494866
Te   30.814705   8.076956  18.988540
W   -18.552851 -16.203106  12.189456
W   -21.037256  32.143423  13.246693
Sm   21.892954 -35.376791   0.013388
Y    24.146387 -22.446848 -29.772150
Fe    4.835317 -22.086473  -5.476813
Cr   30.581101  16.013018 -25.501219
H     5.784368  -4.017881   2.517102
Be   22.113282 -19.109100  -2.241745
Rn   12.228838  35.374426  -0.934158
Cl   13.327311  -8.336040  15.191325
Sr   22.026784  17.011124   2.863254
Tl   -4.264563 -20.399255 -24.810550
O   -11.126415  29.850068 -18.683519
Hf  -36.052339  -8.714531 -17.041975
Bi    5.902780  21.150751   2.685211
Au    4.700694 -25.806697  31.218615
Tc  -31.769972 -21.265192  -2.323790
As  -10.634477  16.032847 -27.252933
At   21.815397  -8.201983  25.550635
Ba   27.994738   4.866881  -2.532600
Hg   16.402735  34.199355  23.709541
Mg   37.883313   2.730440 -19.268612
Te    3.018324 -18.682268 -15.390725
Cl   10.913676 -24.326007   6.440198
Mg   22.192506  17.966141 -21.942091
W    10.019448 -38.241475  13.514159
Mo    7.381806 -27.185603   4.993074
Zn   17.065721  22.999785   2.122673
Sr  -41.196058  -8.180593  -3.789957
Se  -24.112547  -3.393353  -7.800795
Se   -1.278485 -28.760237 -30.514052
He  -18.231591  11.025598 -22.026160
Cu   28.448866 -25.227444  -2.474025
Nd   35.040895   8.847351  -4.523389
Er    8.319223  13.697718   7.595610
Be   -1.501210  28.617761  -9.712619
Li   13.046173  -3.424561  -7.235460
K     5.872185 -30.406831 -13.908337
Mo  -13.867338  17.968043 -34.312491
S    18.819863  14.182445  -0.505526
As   10.889085  24.065570 -19.584779
W   -42.011514  -6.985844   8.185816
Lu   28.748009  17.082415 -19.605215
Nb  -34.498337   6.736910  12.627884
Gd  -20.955093 -14.179405 -15.007862
H    29.995933  -3.538564   8.122810
H    24.146955 -13.789691 -32.286648
V   -23.182959  21.456412 -30.183255
Au   12.651599  17.764145  15.202505
Rb  -12.196543 -11.971863  21.856958
Tm   -6.390118  -8.350253  27.497918
In   11.895012   7.935267  18.584793
W    23.338894  26.131569  -0.673324
Mn   16.024834  -9.852817 -34.124772
Kr  -14.701459 -28.737728  -3.427187
Sc   35.425249  13.250128  25.413490
Li    1.844892 -26.841177 -30.009721
Os   -9.807520  21.138351   8.766747
Na   11.788536   6.860703   3.090597
Ge   13.070689  21.460987  -0.845208
K   -24.272551   7.171535 -17.936877
Hf  -17.797554   1.949215  31.636952
Tl  -34.761810  -4.661777  14.084753
Xe  -35.064597   6.985864 -21.580581
Ru  -12.355299 -12.363288   1.487139
C   -25.914050  19.439532  23.001292
W   -23.160778  -6.393260 -25.139936
At   15.206847  37.996202   7.469227
Ga  -17.923768 -14.383673  26.910593
I    -2.552705 -21.240806 -21.005197
Sb  -21.673551 -13.034349  36.733797
Sn   -9.526798 -42.577813   4.374325
As   -4.590461 -27.481348  18.340663
He  -14.748394 -11.386627 -20.351901
Cd    7.868350   5.634051  18.636114
Pr   24.240640   3.003898 -20.374543
Ti   24.063856  33.363108   7.266164
Pr   -9.240774  37.355586   8.059490
Sc    2.926785 -16.798804  20.138574
Kr  -18.071750   2.615091   2.021223
Ce    3.133616  -3.448369 -10.539974
Eu   21.819736  35.728495  -1.468494
Mn   12.124710   3.470316   6.011478
V     5.552549  18.097244 -22.042316
He   10.663950  27.560544  26.889568
Ag   26.597571 -26.004026 -25.338617
Te  -13.477572  -5.357925 -14.570511
Ho  -12.679114  30.778246 -28.804759
I   -14.757095  -3.929811  15.779207
P   -34.539900   9.069629  20.860924
Pr    0.104369  26.036837  35.951538
Na   20.892084 -10.512905 -38.081844
Mn  -23.935639  -3.149762 -15.078932
Cd  -31.815635 -30.143450  -8.333143
Li   23.728977  -8.916394   8.028038
Te   11.338517  33.547962  27.530858
Pd   22.681290  29.240470 -21.864895
Xe    8.970861  33.319721 -10.836026
Rn   41.736953   6.149497   7.242049
Ar    8.508287  16.614137 -37.802285
Ne  -36.462280  21.360461  -6.104764
Ca   43.599751 -10.967859  -6.888644
Ar   32.037162 -13.902255 -16.727885
Tb    7.513895   6.089515 -33.618689
Se  -14.384406   6.409512 -28.313071
Tm   -4.358350  11.585204  35.619415
Nb  -43.555994  -5.896755   7.902564
Ti   -2.621449 -24.252848 -33.996521
Ru   18.389563  25.141176 -18.330867
Ce  -35.060199 -24.828249  10.206321
Sr  -17.941682   3.768591   4.426393
Ho  -30.308887   0.078387   8.145507
Au    2.719192  13.666075 -25.597319
Cd   -3.791565   6.015284   5.491100
Ni  -14.039385   7.503343 -29.134334
Ta   18.495374  26.333177   8.614308
S    19.689370 -21.008038  28.380150
Ti   13.936403 -10.285734 -37.360758
Ca   20.598273  -7.500626  23.741433
Bi   -0.336904 -11.984283 -36.510554
W    -8.383530  20.122437  -6.590745
Si   16.373812  14.599135  28.553769
Cl    1.988851 -15.867199   1.965851
Cr   14.051541 -36.040755  -7.932013
K    -4.564774   3.346463  18.829167
V     8.173929   7.895292  29.941700
V    -8.197914   2.074685 -17.574825
C     2.005651   4.640210 -44.877441
Hf    8.070373  43.397482  -3.921589
Ag    8.519400 -40.152406 -13.261839
Pm   10.048714 -43.909244  -3.028244
Te   13.062070 -29.815502  15.369299
Sr   16.145843  11.518569  37.214573
Te    4.778625 -11.176461 -18.686399
Ho  -31.327380   6.525010  -7.391223
Pb  -16.790697   0.820971 -37.575495
Kr  -17.002609  20.641351  -2.725729
He  -39.697736   9.096947 -16.602486
Ru    3.018580  -0.226533 -41.152682
Tl   33.825845  -1.031277 -21.819311
S    -3.688862  26.555475  32.076109
Sb  -42.410158  10.680139  -6.133802
Mn    8.919507 -17.488306 -22.333885
Al   14.101010  31.523050  -8.161128
Ir   -6.958166 -32.623370  -9.064476
Ta  -17.470143  22.201938  31.072363
Ba  -18.876153 -26.715531   3.640926
C     5.627309 -17.190746  31.099813
Li  -32.342392 -10.923079 -22.224424
Au   26.157797  13.023861   9.266130
Ni  -32.062449 -25.290686 -14.858780
Nd   31.421547   5.692440  30.287607
Eu   -6.937371 -18.028487  -1.019926
B   -25.966198  -5.720234  17.611472
Hf    1.626944  16.129644  33.155245
Fe   -7.793193 -42.701933  -1.029613
La  -20.325634 -22.387477 -31.931060
P    27.524032 -20.216909  26.422116
Mn   37.696601  13.097869  12.954622
Pb   41.103756   0.816181   7.965947
S    23.471506   8.001982  17.526282
B     0.013264 -35.032721  21.444400
Kr    9.067370   3.960034  15.683358
Br   -0.661120 -44.451360  -8.645287
Y    21.528900 -17.665043  28.823681
Li   15.002222  18.727802 -12.847216
Hg    8.655771 -28.112238  16.517627
Pd    2.965065  17.119734 -18.456997
He   11.219549 -22.030793 -38.090682
Ag   18.586253  -2.616277   3.070031
Cs  -11.353162 -23.423275  10.126546
In   -6.603701   8.185133  -8.959471
C   -27.504748  -0.729624  23.036418
Zr   23.917755  18.669997  17.113075
Cd    7.214404  18.071900  38.996621
Be  -18.636738  24.743921 -29.820115
Eu   -3.227717  -0.034213  13.989835
Si    0.841508 -35.112343 -27.675264
Li   -0.422422  -2.653141  -1.791427
W    17.351038  -9.290692 -16.658383
Hf   40.979060   6.023148   9.250473
Re   12.106124 -19.455764  31.266925
Zn   -1.339872 -42.115018  12.341809
Ga  -15.447254  26.218030  20.872683
Ce    9.703342 -10.700501  32.425531
Ho   26.031735  24.959204  19.100195
Ge   -8.243962  44.742539  -4.148955
Ta   -4.614541 -40.282001  -9.458881
Sb  -27.899412  -8.389252  -5.195931
Kr  -32.598777  26.119632  -7.068512
Si   31.940739 -11.801187 -18.455633
Ag    6.570484 -33.538520 -16.295995
Mg  -30.014645   9.921941 -24.582658
Li   15.586426 -25.983534 -12.296769
Y   -35.778540  12.583020 -19.814782
Ga  -42.034606  10.631548  12.525652
Hg    3.487558   5.309935  -0.855904
Co  -33.118889 -11.066052  -5.002203
Tl   29.140941  25.774250   4.213291
Mo  -24.263145 -17.190123 -17.081057
Ga   35.378678  12.675824 -10.492737
Ar  -35.621004   0.113200  27.332958
C    45.075223  -4.172589  -3.336587
He  -22.301246  19.951893  32.586399
Gd  -32.727749  -3.271954  -8.696990
Gd   -9.384201  21.589713  34.985220
Mo  -27.956751 -13.518486 -11.810166
Hf  -16.565352  36.826778  -8.704174
Y    -1.239695 -38.573164  10.084366
Ba    5.228991 -26.391075  31.752113
H    -8.479751 -40.816326  10.987936
Hg   12.242614  28.160162 -22.480048
Sn  -10.413715 -12.529883  -0.693011
Tb   13.929243  -0.016038 -17.150639
In   34.791002   7.470853  17.392095
Kr   13.767772  41.875587  10.427186
Br  -11.609039   4.337226  -3.665722
Cd   32.012714   9.612096  27.660173
Kr   24.032020  12.489651  36.138580
Tc  -32.540838 -20.589067   1.403629
I    -4.924610  23.690513  37.314572
Os   24.152043 -23.482958   4.547036
Lu   -6.922813 -27.059876  31.107941
Rh   -6.731077  -8.118538  10.916811
F    -1.568839  27.118998 -16.304378
Ir   17.519847  -9.847953   3.978612
I    13.445536  -5.998738  28.299302
Mo   -4.874182 -33.700477   9.684067
Zn   20.050739 -15.629268  -1.830837
Zr   -6.056668  43.295515   7.864700
Pm   -7.139943  12.524887  -8.664559
Y   -14.391771  -3.749917 -19.022335
Ru   13.731594  -0.738484 -15.557863
Sr   14.424435 -10.901033 -34.017175
Nd  -20.480718  27.890583  27.907876
Os   -4.808515 -22.530622 -23.422260
Re  -34.775044  -3.166914 -16.398097
Sb   12.607483  34.533350  22.221899
Ge  -35.525740 -16.201194  -6.392047
Zn  -36.024697 -10.550711  17.920512
Os   -5.136805  19.334154   1.584528
Nb   -8.714884 -27.113606 -35.118950
La   -0.471897  22.425704  -0.466444
Tb  -10.352310  15.193520 -13.411751
Ne    7.465003  22.250551 -36.274465
Pt   36.827502 -12.879724  -9.270009
Tb   25.024677 -12.355416 -10.222323
At  -15.547832 -16.362249  -4.651307
Er    5.173913 -10.662800  38.701644
Eu   -8.681584 -35.246202   2.570593
Ga   13.240064  -8.162174  27.554412
Sr  -17.850169 -26.694218   3.834309
Rh   13.303827  27.113230 -18.808180
W   -30.497902  29.550638  -6.192219
Dy   19.466285  11.591644 -21.126938
Pr  -31.624903  26.000312   7.744490
P    -4.396819   1.192251 -19.263758
At   35.785534   3.544329  -5.242842
Nd   22.553870  14.701541  28.613010
Re   12.696440 -18.399659 -33.412071
Rn   18.840459  17.468000   5.725512
Ir   35.137723 -10.560390  -8.472465
Er   29.993337  -0.235224  -4.849035
V    20.282020  19.753779  31.620618
Mn   28.955898   0.358585  10.398306
Se  -35.199893   9.304505   9.967316
Te  -12.616051  24.930617 -25.848177
Nb   -3.002420   3.714885 -37.099194
F   -15.401005  39.652424   0.387152
Pt   -8.595133 -24.402734  24.791563
Hf    6.392025  40.593542  -2.593274
B   -19.441988  13.453688 -27.541267
F    27.256598   0.711776   2.969459
Pt   -7.119947  23.436338 -11.636311
Mn  -20.409758 -14.152188   3.274296
Mn   13.011888 -20.399426  30.417261
I    -9.149902 -30.524061  21.246313
Eu    4.327245 -31.927939   9.175442
Hf   41.520444 -11.422735 -11.092223
Sm   -7.022372  37.553233  -3.772709
Er   14.658538 -43.002616  -2.305654
H   -36.033204   6.583063 -14.091284
Rb   20.486528 -12.661819  29.350994
Cl   26.381708 -25.851231  11.578808
Be   29.281711  19.577574 -11.996020
Sm    1.644894  -3.599910  39.822741
F    11.279452 -19.097389 -24.177345
Ho   -2.007896  -0.633949  -2.945121
Tb    1.056577  28.201582  35.608459
Ce  -15.330515  -0.797521  -5.096610
Sc   -1.524484   5.324228  -5.838803
Cl   19.605100 -22.583570 -30.663011
Pr  -13.823868 -17.507110 -34.578690
Ti   18.046036  -9.941912   0.252712
N     0.195046  -3.141307 -12.015012
Ge  -29.618743  21.773562 -21.829127
Re    2.861022  -3.283303 -20.592307
Mn   26.135574 -14.696784  31.073601
Hf    1.888759   4.394470 -12.575272
Li   -6.655656  30.409510  -1.484834
H    -0.620715  -9.728322 -19.882651
K    18.827206  22.593154 -18.809805
Cs    3.321950  -2.809093  16.116293
Pt   -7.014080 -38.136572 -15.981505
B   -12.383498 -26.780688  13.436076
C     1.350085  -5.716684  -1.757557
V     8.824007  28.025993  -0.330625
Br    7.992309  41.274614  14.763468
Ca  -11.452552 -10.935226  39.069932
Hf    0.837154  -4.712389 -13.885574
Ba   -5.645105  13.134854  41.379839
Rn  -14.838044 -15.631908  32.428605
Sb    1.938867  16.089788  13.634209
Ti   14.132154  30.180996  20.985752
Sr   -0.885014  33.097837  -6.781414
S   -14.125259  -6.744051 -23.952539
He  -15.932173 -26.442226 -27.432347
Bi  -19.764041   9.395346 -15.531733
Rh  -13.750918  23.756552 -13.826406
He   -7.351753 -28.055548 -29.527304
Se  -34.699721 -22.782329   5.400948
H   -12.078784  18.132973 -18.701193
Re    1.726995  37.684170 -10.815693
Hg  -11.701755 -21.641600 -16.950261
B    25.082347   6.525574  15.189979
W    31.457089  10.128294 -11.588984
Mo  -31.054032 -27.590356  -5.340548
As   24.692106   9.925574  16.239185
Cr  -23.043150  -5.470856 -30.383768
I    21.208232  -3.969519 -38.814674
Ti    3.875866  -6.295691  10.515438
K    29.646458  23.866032  16.971245
Ni  -33.829156  -7.286092 -14.171893
Br   -7.670564  33.353881 -18.615516
Rh    7.411580   5.980631  12.485421
Xe  -24.042402 -20.750544  16.441882
H   -41.346073   3.818228  -5.329970
As    7.021650  26.949808 -17.800524
Kr  -21.289264  28.099831 -24.185044
Mn    1.823621 -25.700073  25.652295
Rh  -13.181434   4.289968  18.420478
Ni    6.151206 -11.521454  39.816014
Li    5.344380  -9.243977 -18.712509
Er  -10.110362  -5.460591  -7.259139
Zn   38.563915  -5.400641  -5.554938
Pb   22.801308  -2.062379  28.777038
Pr   -8.371714 -19.016865 -13.291466
N   -44.006403   6.946834  -6.370300
Cu  -20.187250 -19.189829 -27.605012
Zr    7.720659 -25.232717 -22.536075
Er   -7.854447 -22.841354 -10.189086
Pm   -5.140282  41.733924 -14.293719
Br  -36.256160 -22.000345   6.426723
S     8.100881 -38.125145  17.514672
La    6.925432   8.739039  41.355318
Hf   31.438861  10.305582 -13.823795
Te   -1.515236 -35.216044  13.097331
K    18.681016   9.920358  31.877622
Po   -3.664003 -35.107232 -19.509970
Zr  -15.477992  29.825828  20.280560
Ta   32.323151  25.725877  15.252648
Ti  -10.479277  19.132384 -34.746577
Pd    0.192455 -37.908056 -13.231233
Ag  -23.710877   7.692613  30.199400
K    -3.854851  -2.996425 -31.704328
Re   37.805073   5.255738  -9.340490
He    1.360479  27.646493  27.041549
Ga  -19.272197 -33.954674  13.732816
Zr    7.129885  22.935786  -1.656280
N    -2.754181 -25.612042  20.038552
I   -23.749998  13.327801   5.633210
Eu   -1.567234  33.551582  14.903771
Br   24.151065   6.822032  -4.177111
He  -24.306275   6.436844 -19.345250
Tm    6.142114  -6.523122  31.001274
Zr    0.492309  35.696153  17.092015
Ni  -23.643678 -29.888332   2.211054
Tl   -5.417612  20.013424  -4.365715
Mg   -5.294627  27.407388 -27.007915
Tl  -10.069277  20.802330  23.512653
He   -3.703745   1.978597  16.907896
P    19.189813   3.830039 -11.628100
Tc  -34.583057 -25.621500   5.138173
Tm    1.492384  -5.613687 -32.290391
Cu    0.161608  26.037105  32.394431
Lu  -33.032003  16.215299  10.289811
I     3.386576  31.581567 -29.399433
Te   -0.239912  21.995736 -25.706095
Tb  -24.263127  14.562150  27.286016
Be   -6.035972 -26.470942   3.224738
Ga  -11.445111   9.228094  42.073994
Cs  -29.811450  26.880161  19.672536
C   -12.550623  16.704725 -32.463879
Co    7.555812 -25.529346  15.622699
Co  -20.287226  16.926399  -4.467422
Y   -18.628104  22.558612 -24.858602
Na   31.588133   7.447015  18.492799
Ru   22.445012 -15.080798  15.440692
Cl  -26.331108  30.114478  16.171741
Be  -20.588497  -9.904750  10.740087
N    11.202850  23.048756  17.326150
W   -10.433925 -14.429137  17.192203
Fe   31.787778   6.797723 -25.103314
W     9.047340 -23.421137 -18.953288
Si   -0.283889 -35.491502  -0.249727
Os  -20.498188  13.312802 -21.335335
Eu    0.868361 -33.452187 -21.901478
Ir  -14.159170  24.036309 -19.347954
W     7.197619 -23.788345  15.259446
P    35.922870   7.241772   1.792606
Pr  -24.056812  23.344268  -2.827720
Rn   24.247772  29.601800  19.265963
Pd   -5.871879 -14.190899  18.469536
I   -23.262028  -2.879271  20.722953
Na  -32.570105  -7.953628  -3.098907
Tc   20.348010  -6.539078  -8.375945
Ru   -2.588497 -24.798182  16.525050
Hf   21.638188   9.574669 -34.617381
Hf  -16.539629 -36.211017   3.529634
Bi   12.279130  -6.092654  -6.270627
W    -2.375979  12.741569  34.204253
Re   29.307959 -30.738153  10.237685
Ni  -11.510526 -20.049133  31.945005
Sm  -31.325956 -18.578411  -2.034720
Cd   23.893584 -17.155706  27.468729
Nb   -8.148002 -14.590799  42.290180
Y    21.498831   1.731131   2.403610
Al  -16.650137 -13.202691 -34.777857
Ag   25.176461  10.514611 -30.062689
Cd  -38.187959  -6.605718 -21.122294
Mn   -8.331078 -44.769392  -1.728624
Bi   19.595111  -5.610925  -4.885389
Pr   -9.135048   7.937940 -36.367866
Bi   13.566759  26.251663  -4.471004
B    -4.693188   6.247226   4.819513
Sc   14.609661  23.573358 -11.713945
Sc  -12.240358   1.864781 -29.639151
Fe    2.872553  42.143169   6.309496
C   -12.100299  18.569550   0.353737
Sr  -11.968557 -15.408590  14.482971
Tl   -1.798219  -4.568185  34.514768
Hf  -10.548376 -31.741977   5.074935
Rn  -21.816621   5.258313  -8.646923
Eu  -22.465215  -0.964748  30.870411
Pd   -1.393324  -8.838337  35.932998
W    10.069616  35.990973  19.083870
Ba   -7.480165  19.000905 -38.205035
Br   -8.205996 -30.338492  26.959896
B    22.113681   0.180439  30.189066
In  -23.180379  -8.525525  22.542314
Ce   30.028518  -9.600212 -14.769068
Ne  -30.784888  -5.090148 -17.162465
Li    6.102334 -21.898731  19.488583
Hg   17.727245  -5.495287 -16.655209
Se  -25.125628  31.439474   0.984315
Ne   -1.766578  19.497213 -24.873506
Gd    2.182611  30.864556 -12.372842
La   32.545844 -19.216857 -15.506853
Re   -3.931046   8.687365 -22.123761
Li  -10.993256 -33.551907   6.789317
N     6.976653 -22.453457 -38.627990
O   -30.156732  14.719440 -24.516916
Yb  -17.796359  18.443881  19.445661
Sc   18.550057 -26.543495 -16.863011
Se   25.310977   6.278844 -27.955034
Tm   26.337841   3.284962  -0.889522
Ce    7.685636 -28.671351 -31.819435
H     3.034666   9.152322 -35.258318
Nd    3.298184  -7.744786  -2.689183
As  -28.858390  -9.644826 -19.134199
W   -24.436823  -7.433226 -12.995468
Sm    9.149111 -17.932086  33.362270
Rb  -25.250182   1.876868  24.339203
Cu   28.381233 -30.128749   7.989528
H    10.286935  34.126233   2.209236
Re   23.070621  -4.925238  22.160353
Be   -5.442525  26.633865 -28.665603
Mo  -25.906686   4.576348 -26.143737
Cu   -0.813409 -23.498303 -36.767267
Fe  -30.156700   1.369170   5.824835
H    12.702496  29.284482   9.714153
Ba    3.274557   5.342741 -11.817845
Tc  -21.154486  22.274194 -32.985900
Mg    8.875237  -5.646180  22.509364
Br   17.069072 -12.171007 -16.653292
Br   -7.102966 -18.037090  18.367633
Tc   16.023939 -17.904029  21.252014
In   14.742635  14.048032   3.410327
Mo  -28.513543   3.571495  29.696708
Mo    2.801583 -14.201589  37.595765
Ag   30.938886  14.941282 -16.071159
Be   27.525107 -31.619029  -2.367272
Tb   -6.118430 -27.377317  26.386533
Pt   25.495153  14.974497  -2.504928
Lu  -14.357651  19.938272  35.968630
Al  -11.412857 -13.797674  14.834385
Sc    0.354426  -1.981408  27.351023
W    12.332788  -6.998311  21.262529
Sb  -38.802427 -19.604738  -0.176440
Si  -11.999515   0.483537   8.462152
Ru  -32.052966   8.556215  -4.816235
Cl   39.254704  10.885352  19.335190
Gd   17.970697  15.992466  27.953307
Xe   20.453496 -16.918596   8.386092
Rh   20.024167  33.595814  15.680262
Ar   43.931096 -12.237120   2.132787
Hg   33.010403  26.102172 -17.369758
Ge  -30.047070 -13.010228  -7.283220
In    6.585139  -5.112782 -40.738103
Co   35.634802  -8.283414  14.305839
Kr  -18.702563  21.381476   7.400754
Kr  -15.049445  -2.213583 -19.229640
Li  -20.173085   0.787630  36.125894
W    -0.750786 -28.603158 -21.766389
O    26.809322 -17.001107 -30.400076
Nb   22.895620  23.281220 -11.851942
Sb   27.427284   9.406079  31.467423
He   -3.268288  11.096471 -42.170308
Ge  -15.278035 -31.076984 -25.238420
K     4.871181 -33.361535  15.254866
Ta   11.853679 -12.067327   8.248906
Kr   28.256595  12.035047  12.944992
Cd   12.422891  30.625824 -14.875643
Mg   -9.850739  -8.298658  30.968630
At   -8.319440   5.665740 -38.891450
Zn   14.948665 -32.353201  21.922642
V   -11.502568  -0.300663 -20.324564
La    7.322000 -29.666969  27.904826
At  -34.181894  17.075778  18.360787
Gd   26.521911   5.411247  23.908727
F     0.792014 -26.218226  13.689246
Mg  -27.004770  -2.207268  13.263652
Lu    4.349102  25.463096  13.452672
Ir   17.145224  -5.018290  42.031099
Ag  -40.295915   5.834174  20.386655
Gd  -24.808299 -32.172013 -13.914223
I    23.858852  -1.422796 -32.216410
Sm   -3.244971 -25.368343 -32.194035
Tc  -16.685739  -2.292993  41.606647
Ti  -20.365203  28.954158  14.315626
Cu    7.108036 -32.594858 -12.737131
Tl   -6.699104   7.267875  43.837997
Re  -40.246037 -18.875362  -3.400527
Kr  -31.650122  -3.327956  -6.649948
I    -3.903566   0.809354   8.122174
Mo  -16.495511 -18.451218  29.066033
Hf    4.734013 -15.983374  -7.786391
Rn  -28.687088  14.818926  27.208948
Sm   19.896257 -13.886905  21.061205
Re   -1.780276 -38.400150 -14.855959
Ta   18.249996 -28.369222  -8.777238
Hf    9.613934 -19.214033 -24.761617
Ca  -19.896207  14.848240 -28.099094
Cs   -8.341801 -11.738378 -16.873954
Cs  -20.042707   8.031951   9.957784
P   -35.670152   0.796491 -11.885610
Ba    6.355311 -26.852768  32.324948
Mn  -23.782921 -32.859518  -2.417271
Sm    3.199198  -5.625607  20.736157
Dy   23.406539 -14.376831   8.632839
Ca  -10.250690  -6.136770  24.871611
Mg  -23.055364 -17.567371 -20.383229
Rb  -17.760826  26.982898  17.759469
Ag  -17.352422 -26.111804  -2.007957
Zn  -10.494958 -26.894366 -10.044141
Sn  -33.441800   7.965175  -8.665576
Ba   18.172895   7.591841 -33.486693
Ni  -40.369707   1.868895  -2.951967
Sr  -17.504272  26.166882  21.955378
Tl    4.316245  -2.151019   4.805544
At  -21.194814  15.695263 -29.764623
Dy   25.993902   0.445597  10.521462
Cu    6.035096 -27.384004 -21.880078
Kr  -10.727954  24.999684  -3.749692
Zr    3.220300  41.447347 -14.464305
Ir  -13.849973 -10.019325 -19.363622
Mg   36.541216   7.188899  18.881042
Cl  -39.759716  -5.190838 -16.372031
B    -1.045760  12.718317  -8.273854
Ta    9.410136  15.093578   7.487835
La   -9.287610  -7.625231   4.157689
Sb   30.008219  -0.716006 -32.143641
Ru  -24.255944 -31.021078  -6.469894
Mn  -28.813279  13.193398  30.596750
Hg   17.552795 -24.204753  16.277292
Hg    2.946003   0.406659 -34.325680
Cd   19.147014 -37.304272  11.986686
Er   38.526779  15.691956  -0.861159
Rb   -5.850920 -37.225639 -17.064314
Eu    2.054748  -5.742192 -21.386040
Mo   25.409832  11.638783   0.857525
Sr   28.260487  -0.343707  28.698105
Mn   17.614819  17.887055  11.130820
Ag   23.092833   4.908274  10.328910
Mn    1.628701 -19.575835   5.957481
Si   -4.797578 -16.201004   5.132412
Ga   32.791565 -30.771094   6.767580
Ba  -28.697377 -23.301188   6.405399
Rb  -37.601641 -14.363135  18.320505
Rn  -13.665994  15.281392  -8.869085
Se  -17.722106  14.062749  11.246283
Hf   31.929039  -1.736561 -11.913229
S   -34.077425  -8.457797  -1.331870
Cd  -13.494312  -0.920588  26.030641
B    21.827046 -14.628066 -26.468301
Ce   25.888412  -5.634808  28.575471
Tm  -12.396954 -36.230355  -6.993491
O     8.066936 -39.909632  -9.788052
Pd   29.350585   0.366857 -20.691831
Yb    3.287068 -26.282241  -1.076418
Zn  -33.018339 -30.446891  -0.555903
Pm  -12.246406 -33.145827   4.977673
H     5.059655   0.705794 -23.119214
F    30.616122  27.181135  -0.932660
Os  -13.728326 -35.623356  -8.272195
Se   23.889003   2.294527 -20.683840
In  -15.754988  -2.721441  27.967322
Ar   20.632149  17.005736 -17.480403
Cl    7.281884  -5.987650  43.224706
F   -20.032935  14.941692  33.933959
N    14.694635 -21.522177  -1.590149
Ir  -30.193976  22.662014  17.483784
Tc   41.826276  -1.070455  -6.686770
Er  -13.123131 -24.026072  13.810648
Ca   16.114617  -4.566536  -9.571269
Te   33.733024  19.523208   7.443370
Eu  -30.721225 -18.408478 -15.657988
Ne  -40.879136  -8.184960 -14.811789
Ni  -14.482830 -36.358072 -12.864116
Zn   11.649837 -16.675832  37.543961
Re  -30.843327  11.974053  25.133470
Sc   34.413553  -4.287277   7.249760
Ta   11.696975 -21.529091  -7.147823
Po   12.761101  12.906523 -18.087910
Pd  -32.877497  -8.182316 -24.876456
Br  -22.098644 -25.414424  18.243489
Ca    7.931607 -23.263747 -24.331843
Pr   -0.065811  11.374886  29.192222
Os  -30.582508  25.527344  -9.107291
Au  -26.475541  33.535736  15.089609
Tm    2.339236  28.903167  22.152533
Li   28.549037 -21.649293 -12.636171
Eu   38.555362  21.442910  -4.441972
Dy   12.547334 -21.513249  21.754867
In   31.921320 -21.432903  23.114889
Sn  -25.028540 -23.386798  24.700500
Hg   22.076033 -26.653575  -3.088121
Sm  -25.333362 -20.296440  -0.655912
Pd  -19.994353  24.439403  -4.861548
Mn  -21.126073  13.245346  35.052842
Ge  -15.542995 -35.310944   5.767367
Tm  -15.238375   3.818895  20.990404
Dy    3.234254  -9.394592 -25.719494
Zr    3.573489 -36.093579 -15.351724
Tc   11.064038 -15.937625  -8.344975
Ga  -37.900902   1.339042  10.054419
Te  -17.363592 -14.897345  -0.307495
I   -18.661397 -10.724568  -6.712027
Cd   -7.547170 -22.443441  30.975692
Cs   -6.036922  12.969727 -39.202939
B    -2.858052 -32.411863  13.341022
H     4.863987 -11.566746  24.063013
Sb   -2.007762 -17.624748  41.885620
Ir  -28.445068  12.710440 -26.723903
Tl   11.555180  32.182553 -30.087331
Se   15.356794 -32.204848 -19.827772
Te    2.561492 -25.044617 -15.303774
Li   -9.383777   3.089505  44.559206
Ti  -31.225026   0.121993 -14.587840
Cu   13.023173   2.008209  -3.527480
Fe   -1.078971 -37.228881 -17.653204
W    -1.700704 -10.085209 -11.524323
Al  -11.675375 -11.882989  24.948131
S    27.225095  -2.023274  35.500133
Nd    3.559611 -14.881699 -33.660816
Rb    6.732542  26.877068   2.417781
Cs   20.477250  29.443598  19.086614
Zn   39.452921 -20.042262  -7.898451
Ru   22.871150  15.403237   3.897378
C     5.744252  12.815228 -14.150293
Ar  -14.161578  20.632781  -4.429341
La    3.257586  21.246546  22.517246
Lu   -7.551151   0.987752 -40.079811
Er   21.398818  31.829595  -6.860070
Tc   34.310161  13.567783   0.927937
Li  -15.067470  25.615954 -16.351508
Ar   -0.756546   3.025395 -31.714368
Zn    5.834972 -39.058267  -0.069543
Xe  -30.716352  14.908104  -7.035979
S    32.665717   2.912704 -21.476804
Ti  -19.251118  12.904840 -19.204781
Sb    0.418120  23.995674  35.189322
Nb    4.457194   0.628502   4.833897
Rn   34.604944 -16.116071   9.829867
B    15.792215 -36.665695   3.321995
Cl   19.636561 -13.171776  21.568956
Mg   10.640086 -37.183389   9.802167
Tm  -12.832685   1.690379  19.644581
Hg  -27.162022   4.847553 -27.974687
N   -22.228140 -24.136097  22.757015
Co  -11.310798  24.188358   4.788299
Pt   18.584480  -6.722114  38.235834
Mo  -13.260277  38.598474  -5.083384
Se   12.270881  -9.221187 -35.020942
Tm  -18.337401 -15.384803 -19.442769
Co   21.964547  20.868788  -5.857712
Cl   33.626432  15.037539 -19.096629
Be   17.976306   7.399614  -4.926906
Hf  -33.873576  27.291534 -12.226261
Rh   -3.061778  21.309488 -18.517789
Te    7.442730 -43.015272  13.331003
Pt   37.641328  -8.965206  20.105064
C   -15.190096 -36.108426  -4.786260
Tb   -2.044618 -30.496730   3.923046
Ni   -0.911013 -30.994360  20.173400
Ir   13.969985  23.482675 -35.272584
Ba   -2.025129   1.564418   7.515864
Tm  -26.269072 -21.818296 -15.573108
Cl  -38.087959 -14.339944  -0.176434
La  -36.914246  -7.668337 -14.186400
F    19.392005  22.428057  -3.854450
Au  -26.387647  -1.466423   3.860181
W   -35.297409  -6.370528  18.376667
Tc    0.577494  39.482557 -11.118772
Br   -7.013001  14.612557  41.448073
Lu    6.206773  21.612226  30.767365
Eu   30.110404  29.503670 -17.225280
Cs   38.171685 -18.456097   3.714463
Ir  -33.458646  14.859877 -26.293254
Na  -22.576126   1.475656   1.589857
He   22.208966 -28.648516  17.637838
In    6.682773  28.219322  28.032640
Sb    5.420133 -27.639174 -33.892395
Kr  -29.648980 -28.615613   0.542454
Sr   -6.912125 -36.026660  -2.220928
W     8.524376  -1.672106  19.447506
Ag  -14.937477  -0.842309  -2.320305
Pr   11.409261 -22.071352  -5.428935
Ta   19.024262   0.484645  -7.375645
La   11.505430 -29.851934   5.946391
Pt   -6.083053 -34.459525   8.831273
Mo   13.659659 -43.161681   2.939056
Sc   13.368555  22.862251 -34.934023
Tb    7.403909  -0.817544 -17.175596
Lu  -21.922563  15.216547   0.670953
Re  -27.205485 -13.926370   6.755270
W    31.083671  30.270149   4.697386
Tl   -2.930765  -2.539640 -14.808309
Tl  -22.323737  31.721393 -17.313087
Rn  -13.844037  30.212610  -0.354012
Cl    8.362227  19.250561  -7.416654
Ru   37.908923  -9.261716 -21.025876
Ce   -0.159769 -11.676802  39.446825
V   -14.567103 -22.324218   4.027068
S    -9.443092  37.913266   6.792132
K     2.348242  33.985684  20.402033
Mg    5.474450 -15.258492 -39.163352
Pt   -4.218863  -1.656048 -43.425084
Ho   15.465239  -0.908749  33.601472
Mn   13.183931   0.528719 -29.630961
Cd    9.697439  29.663362  31.663384
Sn   17.317239 -15.845758 -15.995209
Ti    2.007951  27.890155  31.462290
Be  -16.276183   2.810765 -36.596288
O    12.078534 -33.361905  -6.566666
Nb   -4.025725  37.659585  -6.712269
Bi   -8.900042 -12.817927 -39.173804
Tb  -11.119978 -18.859201  16.705472
Ba  -31.304825  -7.430642  29.708962
Mo   -5.183450  33.080816   4.237208
Yb  -21.570364  -8.548736   6.602994
S    30.941470   8.620864 -29.227588
La   32.969294  10.617563 -12.047492
Ge  -12.201285 -17.216530  34.657828
Eu  -27.298690  -1.665618  20.433733
Co   14.270704  33.640526  -2.808160
Cd  -21.749360 -22.144461  19.474649
O    -4.589861  39.059385  -4.557567
Po  -12.568329 -15.559381  37.504888
Eu   -5.622743   6.000698 -15.359463
P   -20.284197  17.549808 -24.473774
Ag   11.333067 -24.841621   4.535916
Na  -27.404882  11.439035 -16.457808
Li    0.739144  27.782158 -25.379700
S    26.037495   6.077684  24.975259
Pt   12.951409  36.511815 -22.092304
H    38.819209   7.138228  22.406341
Hf    7.222045 -12.972803  -2.328948
Ar   33.589482 -17.468994  15.786879
Pm   11.898102  18.777833   4.405883
N   -33.613705  -2.320460  18.319750
As   25.961210 -12.263269  14.277954
I    14.872226 -17.313894 -25.159216
Co   12.179687 -15.890764   1.024481
Ir   -5.520020 -10.164990 -29.241448
Ne  -36.545348  10.104312 -18.740736
Zn   29.488865 -23.676262   3.477115
W    33.473952  13.632032  25.923088
Dy  -29.889989  16.802515  27.915278
Pd   21.696148  16.035718  -1.522748
Cd    7.617603 -21.683047  31.658096
Y    18.154702  25.496164  11.119582
H    -8.322567  -7.864010 -42.229448
Pt   18.910023  38.385627   5.619962
He   40.474058  -1.231696  -0.481097
He   -4.035309  34.313355  28.625565
Ti  -31.895552   2.645105  27.889372
Ge  -32.243979  18.572386   8.279584
Pt  -13.752231  -4.881266  24.640250
Mo  -29.066808  15.106109  25.420091
Zn   25.743091  20.090268   7.959557
Cr  -20.336698  -8.018242  11.198728
Ce    2.360259  -5.436272  19.006358
O    27.693670  -0.116376 -18.497824
Sn  -22.036762  18.233068 -27.174347
Sn   19.238488 -28.761527  24.050934
Zn  -14.761873 -35.562676  18.316393
Co   -3.064415 -10.005942  -5.615199
Ni   34.677564 -22.512784   0.427168
Eu  -21.974780  17.213975  -9.409474
Os   22.047160 -10.953469  15.902270
Pd   16.004719  16.201656  -9.424483
Sm    0.355328  11.524814 -15.703855
Ir  -19.949794   0.443645  -9.666933
Pr   -7.120149  12.402846  35.914231
Ga   -4.707899  -2.971413  18.754686
La   19.653490  19.225612  29.769900
La   -0.431627   6.677904  37.348512
Ne  -16.894289  -1.739145  25.336886
Tb    1.894713  -2.224594  -9.592636
As   -9.269217   9.420326   5.552489
Ho    4.988593 -37.573999  14.576164
Au   27.949669 -33.308830   9.532362
Bi   -9.348725  -0.111042  -8.285668
Ce  -31.199356  16.161892 -26.361456
Pd   -5.188561 -37.764973 -13.446515
Ni  -27.982510  -8.073922  25.190995
Eu   -8.222451  31.447569  14.774601
Lu   10.345437 -24.572656  -8.316127
At   30.825841  -0.493654  13.693693
Tc  -38.959970   5.729015   5.969917
Mo   -3.139842  28.949679 -14.608779
Zn    0.066761 -10.776474   1.343730
Mn   30.628904  -9.995515  23.802902
In   -3.218614  38.068459   3.881750
B    -1.785837  -2.065909 -37.561885
At  -19.586502  12.183417 -37.505138
S   -34.483206 -23.728123 -13.153368
Be   40.368927   6.847051  12.776388
Fe  -44.720372  -7.633019   1.025706
B    -8.336893 -19.771671  37.619608
Bi  -19.906736  -0.349325  21.321284
Cr  -27.286686  -8.288515  33.527659
Rb   -7.004643 -27.531139 -35.206926
Mg   21.101102 -36.014717 -13.931207
Ar  -26.926984 -33.130749  16.222435
Fe    6.292004  14.426951   5.324748
Zr   11.065886  -0.223229   7.685217
Sc   28.096860   0.133728 -20.733398
Tl    1.962198 -16.310318  -8.870561
Pb   -1.740244  39.757277   8.507485
Fe    1.470010 -14.057840  37.035061
Po  -26.349841 -23.708348  -3.326156
Ti  -27.598670  -0.552832  24.767091
Tb   18.324907   8.520615 -13.903543
Se  -12.160132   6.310642  10.939132
Be  -12.256066   8.138389  18.350118
Sb   -7.754945   9.161440   2.833976
La    2.309765  15.252788   1.825793
Rh   -0.887475 -18.328091 -16.085216
Br   38.399054  20.658884  12.979189
Gd   -2.489814  -2.290168  -0.377961
Er  -15.534886   8.761040  39.892093
Ar  -11.529220  13.606941  35.724043
Hg   -1.414816  17.457955  -3.637936
Cs   14.884859   5.097812  42.150381
Zn   -9.165331 -32.994069 -12.183090
Pd    2.240760 -10.275096   9.298372
Y    18.183694 -39.755742   5.612468
Br    1.084051  -5.851534 -29.791479
Y   -26.071587   4.865980   3.898596
Pr    4.445164 -10.253446 -13.387058
Ne    3.412374   6.585742   8.016919
Sc  -18.528044 -12.623110 -23.821299
Au   -6.190112 -31.771993  18.275548
Dy   -9.844688 -44.167049   0.418391
Xe  -33.920486  16.682983  -0.549745
Sr  -26.505456 -28.818559   5.605379
Cd  -12.605233   3.564126  20.798785
Au    0.549498 -32.785012  22.402409
Cl  -25.044548 -30.139713  -4.320542
Mo  -35.209439 -12.169503  17.477962
Tb  -40.335196 -11.377545   9.732454
Re   -5.116102 -12.146175 -13.254488
Zr   -2.790695  42.250358   2.995022
Hg    9.808737 -36.693809  10.020054
As   23.571571 -34.558673   1.963404
Pt    3.536164  24.084795  22.437345
Y    17.838283  27.338949 -15.159398
Li   14.787366  -1.571662   5.548198
Se   -1.565128 -23.665288  33.198436
H    -0.620198  -7.980617  31.684211
S   -36.294980  22.702577   0.459359
I    28.219960 -28.480166  15.288476
At  -15.277455  17.041241  27.414860
Bi    6.496897   7.151384  21.741182
Cd   16.406342 -15.473516 -20.949284
Ag    5.670909   2.116037 -21.753067
Y   -10.656907  -4.088144  19.625186
Rh    1.029824 -33.818839 -10.131257
O     7.912178  -4.051607  -8.928741
La    5.682121  15.864946   7.739660
Ba  -12.009194 -25.740441  -8.008874
Ge   -6.662512 -21.337398  11.438755
Ni  -27.595154 -21.062629  21.770690
Ba  -10.811033  12.839573   3.351329
Ta    2.068188  13.029514  30.930507
Sc   -1.362785   6.731906 -43.859586
He  -10.168785  -9.366737 -35.254275
Ir   10.656838 -24.557280 -26.479769
Ge   30.856403  12.367713 -26.240201
S     2.680295 -28.242130  25.981584
Sc   13.718662  -5.045825  10.570287
Zn  -26.256876  -7.277606   5.993710
Er    9.262857  16.384741  32.902560
Ce  -17.134335   9.957561 -31.650426
Po  -19.498700   4.085272   4.528965
Nb  -38.423649  14.803589  -3.614699
Eu  -22.939486  26.971980 -27.340802
Te   13.050562 -10.860277 -36.103576
Ne  -29.177517  -8.925675 -17.754265
Sr  -17.451298 -33.398304   0.651556
P   -14.808253  15.326802 -36.053776
Ca   38.927226  -3.992838  22.973354
Dy    0.557796   5.894301  -4.011850
Sc  -38.515050  21.757829  -9.473941
Kr   12.014576  39.725279  15.801932
H    15.434674  36.100100  -4.353457
Se  -31.587724  13.449082   6.069679
Hf  -11.541395  -8.571810 -33.941214
K     1.367154  -6.857924 -35.879645
Ag   11.862392  -3.776845 -28.994745
Au  -22.721461 -11.619679  25.296578
Sc  -36.038384  -6.263583  10.139402
Er    7.470368  -7.949732  -8.718914
Rh    2.720167   2.305974  24.863604
Nb   -2.487247  15.582782  -7.001385
Eu   -1.398403 -11.128440   5.571254
Re    2.675108  16.656512  38.867500
As   -1.732532  34.502020  29.732201
H   -22.660984 -14.938282  -1.976156
I   -17.265314   0.029301 -35.657696
Pr  -12.255180 -38.252666  21.735979
P   -18.304683   6.513023 -31.663943
Re  -12.110235  -8.866702 -12.925270
Fe  -17.481328 -17.127212  10.478158
Hg   12.326838 -17.500897 -11.236327
Ir    7.991419   0.672308  24.730540
B    -0.215257 -23.069496 -18.148956
Fe   15.571577 -20.861689  27.077041
Se  -27.438940  -5.443102  18.576128
H   -32.540647   9.129527  26.570033
Er    1.403691  12.709759   9.331990
Kr   31.807448 -20.484097  -9.721157
P    12.127434  24.721421  25.065894
Lu    7.157733  26.423908  26.771212
Rh   -4.853832  23.350906 -21.042617
V     8.528453 -13.491510  13.143974
Pr    8.742907 -13.239652   8.823461
P     1.343170   6.593066 -29.569779
B    17.923889  38.767623  -2.159462
Li  -23.739369  20.612130  20.737363
Sm  -34.232114 -27.180861  -6.121023
Si  -16.839778  28.416063 -19.476025
Ta  -24.597368  12.963367 -15.459276
Si  -20.735168  24.635627   5.012472
Mn  -17.290858  31.710715   3.022099
Li    7.536683 -36.038616 -26.902709
Rn   -6.879683  14.974395  39.568738
Pt   -8.602218  -1.865692  38.342175
Ar   -6.309589 -32.791086  27.343210
Br   27.468346  29.041555 -19.468475
Te   -8.172156  13.524166 -24.891367
Sn   23.479108 -16.776589 -22.609288
C     8.526996 -34.460471  26.066695
K    -3.004299  35.671139 -20.397653
Tc  -19.286167   9.626554  -3.952190
Bi   -3.103524  -8.374959   8.451837
Co  -19.716632  -8.527428 -37.583002
Cd   -4.295491   9.628704  26.755761
Ba   -7.682009  -5.226815  36.664162
C    12.754018   5.578664  11.700546
P    15.744397   1.882317  28.464611
Rh   25.539278 -20.845333  -1.629137
Cs   17.399793 -20.750048  -9.446237
Er  -11.544073  -2.377284  -0.491120
S    19.779943 -25.363340   3.235857
Nb  -20.635947 -20.934376 -13.991457
F    -7.598719  37.747477  21.274513
Ru    8.589566  39.444055  10.572679
Sn  -16.722287  26.553673  21.827865
V    -9.720806 -32.375541 -10.715372
Rh  -17.888786  -4.361129  14.301032
Pm  -31.248592 -15.747271 -20.830198
Ba  -36.176606 -23.504255  -8.914418
Si  -24.328910  23.327644  -5.065662
Cl   21.907512   3.055394 -15.765375
Mg   26.392433   1.837588  10.291116
Co   20.738639 -33.273759   0.657824
Hf   14.143313 -38.902286 -13.062046
Rn   13.256182  10.121273  15.081228
Zn  -18.572713 -19.636218   9.606449
K    16.696380  29.373820  17.277173
Os   27.611225   2.349577  24.934044
Xe   22.736947   3.511343  -5.996580
Ta  -15.506815  41.352552  -1.794658
S   -25.094646  20.793681 -23.024430
Pm   -5.536783  20.087315   6.793266
Mg   -7.437145 -26.155091 -11.029762
Al  -14.623411 -36.114116  20.085856
H    10.165837 -14.399580 -29.313927
Ir   30.147795   8.445186 -24.343652
As   21.300276  -4.303047  32.400541
O   -40.478856 -13.787986  10.303358
Cd   13.777714  21.091172   9.476777
Hg   11.240436 -30.504836  19.454520
Cr   26.736182  -2.783112 -36.531276
I   -13.599904 -18.863436 -10.631595
He   -0.970821  16.968497 -29.293328
Cd    9.988813   3.730859  39.303917
Au    5.201985 -26.903532 -10.841281
F   -28.867326   7.421418   2.945923
N     6.574316 -31.957620  -3.392504
Ni   11.178105  -7.655588 -35.618635
Cd   -1.208970 -34.195370  14.658245
Te   13.329497 -26.916479 -32.046281
Li  -14.454458  15.745053  -5.146806
Pm   38.128623 -19.995964  13.605004
Se   -1.029408  -5.230737  35.782968
Zn  -41.301831  -6.306321   7.489529
W   -28.959738  15.324729 -27.061308
Ne   38.606546 -22.227867  -1.673567
He   -0.143399  -7.744579   3.858554
Be   28.300838   9.395204  15.031260
Mo    1.005310  11.121076 -42.463392
Sr  -24.800424 -21.062692 -18.098033
Be    1.946438 -14.267855  -0.091633
Re  -27.883415 -12.413484  30.439558
Ta   13.245058   8.097315  28.033856
Cs  -13.551207  -7.127343 -37.141216
Nd   -2.721828 -18.067692 -20.405896
Dy    4.372692 -23.237280  -0.781444
As  -25.268228 -35.976364  -4.058295
Pb  -15.781765  41.332102  10.927389
Mo    9.263130  35.532824  -8.853731
Si   29.276626  28.521047 -19.352163
Sn   35.566436  27.675540  -3.982687
Ca   -4.988736 -18.857057 -30.906505
Ar   -4.659508  30.774652  -8.433755
P     1.547151  32.974523 -27.412810
Pt  -20.095894  -5.419399 -27.182575
Co  -33.334505  -6.530125 -12.341402
Tl  -12.254111  15.601565   8.895005
Sr    6.703450   6.208973  43.024921
B    16.312797  -4.585445  15.325396
Si  -10.597193  15.706149   9.376300
Po   21.551117 -15.111937   0.701571
Cd   10.440989  36.041188  -3.623149
Mo   26.367111  16.396773  -0.561881
S   -40.259018  -6.952680 -15.751833
Pr   34.589269 -10.942033  10.071243
I   -23.944168   0.191262   7.919880
Nb   38.632030 -16.322898   2.235501
Co  -27.759088  21.831072  -4.531457
Cd    0.255037  22.990707   1.401141
Ho   13.024731  37.841343   2.691503
Lu    5.457640  42.560536  10.619208
Pd   -5.018083 -29.620732 -11.211587
Zr  -23.164576  24.471188  13.193871
Sc  -21.840884 -29.485434   2.137514
He   11.258296  -6.543842  36.256963
Te   30.678109 -19.772820  14.839830
Si    6.072605 -16.308983  16.873128
Te   -2.850374  27.494045  -1.453087
Dy  -10.000656  -1.870210   4.940576
I   -27.034967  33.117730  -5.776444
Sm  -24.954980  10.743944  28.456515
Nd   30.368961  -6.396406  25.209890
V    -9.644008 -19.016572  30.813742
As   -0.667893 -31.397837 -13.970269
Rb  -19.594256  14.449111 -21.788335
Ba   -9.312504  24.029290  10.890822
Hf  -21.456474   6.594759  19.550668
Nd  -14.990837  21.558499  10.842684
Re   20.827690  14.545531 -22.842601
Rb  -23.511258  23.436919  29.227723
Rn    0.642303 -23.984149  -5.295180
Sr  -32.362166 -16.391971 -12.600237
Ta   28.768355  30.633999  16.853323
In  -31.241443   6.598622  24.403868
In    0.625843  -3.337788  -2.231276
Tm   -8.993012  10.113157  32.031790
Mn  -39.776690 -15.616772  -8.057776
Al  -22.229918  21.616447  24.989919
V    20.231121 -10.920934 -19.519249
V     0.514434 -29.283322 -32.084097
Tl  -12.417552   5.378630   1.389601
K    36.888493  22.603218 -11.613290
Re    7.415327 -31.209419 -14.714524
F    -5.272166  -1.987721  29.539002
Se   27.343895  30.131209  -5.494906
Re    8.489834 -32.420359  11.357427
Er  -23.228195 -27.229448  -7.876366
Er   -2.816901  13.538722  -2.592649
Ni   17.072991   5.656507 -41.427970
I   -28.152184  -2.597850   9.985977
Sm  -22.857751  25.731631 -26.158340
Mo   18.516106  16.054227  23.700489
Se   -1.615003  11.095422  22.784232
Ni  -31.127242 -22.509454 -13.668466
Os   40.432438  -7.940119 -10.794445
I    23.393772  -9.549762  15.910708
Y     4.421725  22.406136 -32.192672
La   -9.763700  32.881903 -14.800262
At    7.838073  19.613671  23.123542
Dy   22.511417  31.120809   9.887150
Br   25.970862 -25.123980  -1.680729
Er   12.344448  25.653940  -2.078148
Dy  -24.798686  -5.202566  21.120408
Al    9.940467  -0.435501 -42.822493
Pb    8.558239 -35.189909 -19.991410
C    10.476598  28.418577  -3.978220
Ho    8.859876  33.341836  -3.643488
Bi   -8.750191   1.387614  19.137622
Rb  -12.711895  10.846847 -11.006881
Be   -2.142003  20.887598 -21.128873
As    3.947260  13.729538  41.208771
Gd    3.842116   1.894056 -24.998710
Sm   15.721242   5.760914  33.896300
Zn   30.240622   6.055699 -15.779980
Eu   -6.789400 -17.262999  -1.982748
Mg  -22.263349  23.468770  15.526115
Sm    1.585264 -30.686873  26.414998
C     6.242557 -34.983636   0.202099
Ge  -23.644674  16.805521  -1.810214
H     0.227348   1.664503 -24.323981
Li   -9.051508  15.821033 -24.722057
Rb    3.502997  21.233639  15.945467
K   -21.219798  29.910566  -6.007263
Y   -13.233545 -33.400578  22.976172
Nb  -33.430633 -11.749908  14.548557
K    12.805547  23.359117  33.622205
Ne  -15.168225 -36.583925 -10.014470
Pb  -25.624017  26.841838 -24.001605
Bi  -17.951001 -22.595596  16.670668
Ir  -24.101959   2.983052  -7.192616
Hg    0.514844   2.001371 -38.736985
Zn    3.729317 -24.711387 -12.150406
Dy    3.914483 -11.904502 -28.173685
He   22.395033 -13.841043  23.410954
Ce    9.652821 -27.303532   9.891568
Er   -2.941989 -39.376839 -21.899572
Dy  -13.854098 -28.296659 -29.637820
Er  -33.358188  -2.645199  -3.020037
Sb  -21.943267  -9.741588  22.292882
H     9.846840  -4.831032  43.017460
Kr   14.209434   7.308340  36.735352
Te  -24.101508  36.057426  11.361192
Be    8.479583  17.028830 -21.042826
H    -2.692879 -30.471980 -22.455106
Cl   16.519056 -22.916266  35.847041
Sb   13.066576  37.499649 -22.382283
H    15.392291  12.898645  35.622090
Sm  -26.299278  26.822544   1.527980
Ge    7.356229 -12.940144 -34.581783
Yb   -0.768800  -4.383971  39.483051
He  -25.657074  -6.395506  12.427860
Ni    1.041961  22.454287  15.901843
Sr   37.571667  21.978468  -7.409736
In  -17.445839  17.540405   7.778929
P   -17.742872  22.894426  18.920022
Mn   11.675217 -43.253783  -2.069729
Ba   14.522762   8.359838  -3.139542
Sn   -5.127827  21.699542  -6.889096
Ru    7.692601   8.002376 -40.962242
Li    9.247184  34.741690 -20.280438
Si   -0.231221  45.405237   5.211415
O    -4.070944  22.773285  23.923515
Br   -2.433778  33.415597 -26.298055
Te   29.947725  21.939492 -10.527507
Os  -20.717469  17.255673  -5.272451
N    21.014882  -5.932194   4.161481
Dy  -35.352704 -15.880490   6.289834
K     2.554811  35.943655  -3.021073
Er    6.047016  21.225076   9.137818
Po  -35.632309   3.199176  22.067319
Fe   31.134117   2.286864  15.011213
Bi  -12.763241 -11.743880 -39.698110
Po  -19.127325  25.520077  31.135089
Kr    7.098708 -31.926682   6.537035
Hf  -14.139805  25.867052 -26.869722
Sm  -37.390693 -13.218667  20.715451
Sr   -5.253943  -1.894166  25.542178
Eu   15.612379  36.050327  19.688073
Pb  -10.694647 -26.175576 -17.524938
Nb   20.059874 -27.590894   8.602363
Ce  -14.658235  16.029693  24.352478
C   -20.344072 -18.748759 -24.610616
Rn   25.419302  17.765760  13.319419
Se   -7.391657 -34.748301 -27.317451
O    32.663261   3.594222  -9.480101
Xe    0.678650  15.615314  39.690230
Dy  -16.672088   1.274164   5.503312
Rb    7.544784  13.106808  25.267029
Ge  -13.534655  42.320847  -9.963181
Xe   -5.274942  24.318730  15.681346
Os   -5.424749  41.377592  -3.177938
Fe   -4.329548 -41.587154  -5.362562
Sn    3.568165  -2.847169 -24.786844
Pt   29.146158  28.622555  13.778479
Tl   13.324417 -15.716650 -11.190987
Fe  -16.464876   0.456525   8.010343
O   -34.664045  -9.002817  22.661465
Dy  -12.813974  13.184417  34.168260
Mo   22.351589   0.013688 -37.921255
Po  -16.980819  33.957987 -22.644702
Sm   10.507864 -19.737836 -19.343116
Ta    8.970037 -10.327723  39.182042
Hg    6.104382  24.259962 -26.327408
Zn   -7.092781 -23.312723   0.817083
Ca    6.711465 -13.251172  -6.028128
Tm   31.184076 -26.731996 -12.816123
Te    0.152897  41.913615  15.148796
C   -22.563074 -26.298639  -9.418605
Zr   31.069351 -12.307674   2.620562
Ge   26.027829  25.941092  26.943264
Se  -12.591447   5.140440   7.984320
Sb   17.137808  35.611837  -4.714028
Ba    5.646360  -2.565094  22.853518
Kr  -38.742892   1.923461 -16.459238
Rn   33.611536  13.707599 -10.799990
Ga   12.218260 -18.028938 -21.607306
C   -28.119291  -2.121277 -25.666326
Hf    5.223071   6.390061  25.768016
Ru    9.454783 -26.802738  17.119040
Se   -9.559591 -11.988069 -27.654399
Ar   26.355447   0.933233 -34.890245
Nb    5.285766  11.585051 -29.785773
Xe   39.682940 -12.159056  -4.624348
Pt  -16.669514 -35.132541  23.136561
Ga   40.911513  12.920122  11.270241
Ne  -24.537009  20.318568 -22.590944
N     9.241216  15.624636 -40.345793
Si  -29.646466   1.537180  -4.398453
Rn   21.524876 -10.384818 -17.848196
Zn  -13.833813  -4.533644   3.048059
Tm    6.222693 -25.096011 -35.049164
Pr   23.639686  27.414348 -10.036659
Ga  -15.534049  25.677681   9.557517
H     0.928098 -37.788785  -4.001808
Ba   23.110597  30.689865 -19.990646
La  -10.820729  15.821419  -5.372115
Be  -22.952611  26.377689  23.043989
Nd    2.527965  -8.719940  32.709979
At   -3.170248 -41.050735  -2.908238
Ba  -16.121560  19.842157 -12.620891
Ne  -12.657441  29.696528 -17.992923
Y   -17.084490  10.706684  39.788349
Sn   12.734620  -4.509951 -33.943213
F    26.770047 -11.706061 -19.014969
Ho    0.759433  21.352773 -20.955871
F   -37.676477   9.671641   6.281071
Re  -15.068207 -20.588436  -9.797828
Al    3.337326   9.028814 -23.157216
Cl   28.871922  29.333685   9.246722
Ru  -17.380042 -21.215480 -18.046083
Ce   -7.167752 -17.358915  23.653837
H   -18.960036  12.708369 -33.056900
Sc    1.003787 -32.042245  12.428215
Sr  -12.656464  36.647893  -3.019153
Si   15.596966  17.627927 -22.695039
Tb  -11.526689  31.954600   4.428154
At   -7.108529  -0.793400  36.670054
At  -25.873042  30.210755  -5.751802
Sr  -33.807474  14.625856  10.180374
Ce   -3.983010 -13.424576  13.411259
Se  -15.037305  17.396192 -20.992583
Er   32.009081  19.630216  -6.804505
Cr   -4.901447  27.615027 -17.301203
Pd   12.147109  -8.289039 -38.878698
Re   35.606399  13.074006 -21.663640
C    10.406640  34.339581 -19.233692
He   37.475083   4.538973 -19.118138
Fe   41.507227 -13.472787   9.313512
I   -28.037786 -18.318088  16.036558
Li   20.677474 -28.513649 -18.949885
Se   31.435630 -28.195743  -9.494606
Mg   17.046017   5.015612  35.400006
Pt  -15.418701  -0.948866 -25.232775
Cd  -23.666716 -22.524534  -3.891360
Mo    1.334914 -17.473828  -5.511979
Pb  -23.220804 -11.082249 -16.125685
Rn   17.369966  13.472764  37.814262
Mo   29.862577 -21.387953 -17.141229
Rb   27.622746  -4.176108  -6.385633
Nd  -13.008592   1.458919 -26.000682
Nb  -24.463808  18.650364 -14.377056
Eu  -36.874257 -18.854843   9.997185
Cl  -28.583854   8.540668 -27.424174
Ba  -32.236706   0.945761 -29.760897
Fe    0.322401 -36.451382 -12.739284
Br   -7.218661  -0.453342 -31.497656
K    11.057033   5.678379 -34.703424
As   18.945322  26.639482 -20.065392
Tc    1.065001  21.406468  35.951420
Co   -1.454720  -2.536535  11.686046
Ta  -17.850162 -27.440851   4.670273
Li   16.462673  38.857894 -16.056014
Ba   25.454517  30.124810  14.027959
V    -4.762275   5.759229  17.300407
Lu   29.279415 -11.487202 -27.723283
I    22.929469   2.100127 -21.492546
Rn   30.007682  18.248188  -9.525833
Ni   16.017418  21.547602 -10.448457
W    -5.907558  -4.065977 -36.066326
Ga  -16.982201 -23.179673  20.046879
Tc  -41.444551 -13.358277  -7.798618
Tb    5.498230  21.321410  11.579523
Tc   -9.672277 -10.227201  21.716456
Ce   -9.680358  16.067316 -19.984613
Rn   32.375116   7.503000  10.370207
Rb   39.584930 -15.269346  -9.342143
F    -0.158140 -19.280509 -35.052405
Nd   39.141757 -16.332543  15.964779
Rn   22.013490  30.103808  11.198466
C    11.234777  16.221119   8.792797
Tb   -9.177081 -28.273858  14.196888
Te   26.535303  -8.176939  14.616410
Dy  -17.939458  -4.046639 -40.873896
Li  -30.258952  -2.297891 -12.252722
Se  -11.578590  26.543973  19.627739
Ni  -20.964764  28.006797 -26.547079
Sb  -16.872821 -40.969298  -9.638954
In   35.451114   7.236032 -14.208592
Ir    8.508059  39.609564  -5.213998
Xe    4.588214  11.954160  -8.061508
Zr  -38.541247  -7.904720   3.220256
La   28.100954 -10.498215 -19.799082
Li    8.250034 -26.493866  11.868215
Cu  -11.189839 -14.896706  25.397817
Rb   23.400782 -10.696831 -33.270673
In  -19.007048  32.010924 -25.406708
Os   -7.444002  29.409690   7.583807
Al    8.958859  -4.862417 -31.277294
Mo  -15.378616   1.342146  -5.720531
Re  -29.046473  -0.076737  27.482357
Te  -13.972279  15.339264 -26.365790
Cr   23.514366 -20.273012 -23.760955
Ru  -12.280361   2.022033 -16.340963
Ru    4.177697   4.019815 -16.362262
Sn   24.099535  21.170676  19.892564
Tb   -2.397923  -3.949825   9.027424
Ce  -18.077408   7.782641 -13.090600
Rb   -3.663683 -30.448244  32.469160
Sn   30.666787   6.904860  25.838417
Rn   13.058777  32.400291 -14.517600
Ce    1.181109  32.626185 -23.358355
Br   -6.740104   2.850487  14.033600
Ni   11.012425  25.619594 -26.187134
La   12.975370 -11.847758 -20.460439
C   -17.378838 -31.641271 -14.494107
Ir   19.120744  38.154942 -15.291378
Eu   -6.723975   1.745454  45.129281
Os  -11.295344 -28.002596  12.215108
Ti   37.933611  11.698960   2.075291
Cl    8.940942 -20.764344 -38.451213
Ca   22.257226  28.192078 -20.233366
Pb   -8.663834  13.472410 -20.386992
Cs  -20.978774   0.328387 -19.139781
Hg   25.271566  10.446042  -1.339688
H   -10.795235  24.349243  -5.059672
Ge   31.350466   7.349381 -16.503392
Mg   18.656768  13.395930  -8.433053
La    3.607314 -15.483257   6.199921
Tl  -22.401959 -25.241618  24.407358
V   -10.002455  21.518532  32.714954
Pb   21.266628  13.702027  23.523160
W   -13.347534   4.626924 -30.424355
Hg  -25.917901  -9.839943  20.944162
At    2.790682   3.590107 -17.836124
Eu   25.743511  -8.924450  36.217054
As    5.973551 -31.565993 -29.441226
Ho   20.799702  15.536620  -7.282940
Ar  -25.680864   6.847617  14.145507
V    -8.137847 -37.949042  20.589946
Xe    3.469303 -39.858117   3.574133
Ag  -38.524408   7.474221 -11.114285
Hg   15.781552  23.900598  23.305972
Ni    3.023292  -2.553675  33.583015
Nd   22.850568   6.940601  38.182973
Tb   -0.883226   6.627745  41.518184
Ba   20.707647 -22.444068  -5.588420
Br  -22.129814   1.995486 -22.964754
Sb   -4.174659  -4.536093 -16.654449
At   16.973421  24.373880 -15.458774
Ag  -10.671757  34.480073  23.933613
K    -5.783011  19.459234 -33.638329
P    -0.811822 -14.271634 -20.548699
Sr    2.534590  14.925297   9.561020
Nd  -24.600248  19.512858 -20.925729
O     5.763421  19.877143  17.006352
Pm  -26.151430  -1.781227  17.217574
W   -24.806071   5.050917   5.021121
Re   33.465292  30.342515  -0.048755
Ru   38.214451   0.044448  -0.921946
Si  -22.836207 -32.205500   4.387399
Dy   -5.325781   2.347226 -22.135482
B   -16.180463 -25.322966  34.162216
Tm  -32.467897  15.582545 -20.454902
Sb   26.291233 -28.083980 -23.373983
Eu  -16.058131 -26.630971 -16.176609
Re   20.298562   7.342835  27.758325
Cr  -15.886824 -28.961139  14.529883
Br   29.617088 -10.824226  26.956529
Au  -16.366110 -14.993241  15.991915
Tb  -32.791593  -3.125399  26.981519
Pr    1.650832  36.898965  12.680638
Ti  -22.442541   6.915534  -4.698443
Cr   15.115738  -4.527152 -12.866418
Pr   31.032367 -28.859657 -15.410881
Hf  -12.800129 -28.545084 -32.293144
Hf    6.591356 -31.089806  22.532678
Pr   25.044003  14.464410 -27.625338
Be  -16.679153  -7.527404  38.860666
Sm   23.377178 -18.521257  28.703210
Al  -26.797115 -13.496572 -32.194631
Ga   17.478448   3.630201  25.026480
Rn   -6.265057  33.279153   3.495487
Pm   13.647714  -9.908762  37.627861
Bi  -21.906156  10.417070 -34.144162
Tb  -12.524053 -31.216808   5.859776
Si   36.945924 -15.297113  -8.573106
Al   -1.259989 -30.648445  21.985076
H     7.178816 -25.224958 -23.525912
Hg   -0.671547   3.507228 -26.699765
C    37.750605   6.445679   5.538805
Yb  -17.467252  25.673253  31.283681
Tb   32.428474 -19.606877  12.857850
N   -11.558388  -4.823334  36.366490
Cs  -25.661009 -20.106103  21.113430
Ga   -1.241164 -41.118154   9.826345
Ta   17.497458   3.821064 -39.083869
Mn   12.081414 -38.406321  -7.615081
Pr   22.718196  -2.069773 -11.816368
He  -17.791704 -25.818519 -32.800852
Tm   -5.858024 -18.135702  14.977185
Mg  -21.104045  34.718771 -17.386688
Br   30.070067 -21.541400  16.198970
Re   24.469412   4.629446  31.549666
Al    7.347531   5.063272  -9.066311
Eu   20.146433   9.229219  18.067442
Rb  -24.942405 -29.366591 -12.652010
Tb   10.086219   1.998426   7.034723
Ga  -11.128349 -32.260788  22.368835
Ir  -32.068408 -22.629869  14.605586
Tb    8.241742 -23.334150  13.898731
In    2.697580 -36.662365 -23.209989
Ru   14.634061  33.743124 -18.696963
Cu   -9.646936 -26.515696  22.865504
Sb  -15.896252 -30.313875  -9.769667
Tb   25.327157  30.773228  14.932803
Li    1.005548  -2.108895  -7.085418
Rh  -19.702895  11.649980  36.998161
Mo    8.461041 -27.001073 -29.841561
Ga   18.881599 -33.509134  -9.877650
Lu   19.528417  28.685354  -1.005052
Ga  -11.988113  11.982301  41.083346
Nb   -4.545515  18.368247  36.183429
S     4.104021 -18.119278 -18.522111
Tm   19.051983  19.561657  32.059556
La   -6.694947 -11.747295 -25.538186
Ga   13.769121 -37.392250   7.404115
Tl  -13.677184  23.018645   3.443063
Ca  -28.570132 -29.382309  14.502554
Eu    5.119041  -9.544467  28.480700
Pr  -11.316415 -32.152723   5.167349
Mo   30.801604  13.768367 -28.462754
Gd  -11.073105 -16.761588 -33.548639
Ta  -18.621423 -12.504530   1.022225
Pd   -2.652354  25.398131 -23.280570
At   29.713770  -2.812522  -4.708075
Si    4.409913 -36.594141 -15.367602
Rb   -3.053343 -12.232752 -19.144979
Ag   38.622164 -13.907621  -3.469878
I     3.589422  27.310756  12.764425
Ni   -0.616677 -28.130488  -4.627983
Ge   -9.540890  41.969347 -11.481544
Tc   -1.461624   8.708096  -7.111685
Sn  -17.039566  13.342450  23.519345
Ne  -15.995227  18.202992 -16.927485
Sr    7.119878  25.742959  24.207194
Hf   -0.517499  37.666108 -20.315368
Ti    4.001032 -11.072966  22.926277
Al    3.329752   5.118216 -22.598182
P    20.650768  12.969105 -31.383760
Li   32.938875   4.552014  31.131183
Gd  -23.488699  28.075727 -20.428865
I    22.502387   5.603082  11.540871
Mg   18.978517  38.842498   1.544667
Br   13.715980 -31.649955 -26.296061
Pb  -28.055227 -14.503905 -24.939817
Ta   18.315804  10.902085  10.943716
Au    5.881308 -34.420539  -5.736287
At  -33.210744   4.555302   4.679478
Pd   12.907762  28.020183 -24.700813
Sn  -38.066654   9.602325  -3.512615
Rh   19.190986  -6.119320  21.301373
Ta   22.499891 -15.085962 -34.800340
Nd   15.318993  16.112564 -18.116138
Ag   14.071997 -21.954162  20.449288
Eu    3.847419  -7.433595   3.757536
Cl   35.726932 -16.741966  -6.777899
La    0.044117 -38.394662  15.163218
Br   41.476777  -3.263613   4.864947
Be    7.800279  24.925854  36.110149
Sb   -9.486714  38.652473  -6.347919
Ca   -0.597294  30.729255  -6.995328
W    -0.610251  31.245257   1.682509
Ta   33.258008   1.765801  22.702673
K     5.900073  -2.691376 -21.144554
Fe   17.829211 -21.814751   1.525452
W   -36.862541  12.574589 -18.321938
Br  -28.572520 -23.161815  21.844669
Y    19.832631 -21.105383  -5.882177
Nd    2.824584 -28.768637   1.004533
Kr   12.662246 -38.875746 -16.138998
Sr  -20.135399 -18.150748  10.054733
Eu   33.797771 -18.405937  -8.872979
K    23.545740  14.708506  23.220197
F    -5.213061 -13.175070  29.993064
Sm    1.154920 -39.510520   4.989535
Po   19.951633  16.799805 -25.552811
C    36.676675   0.652992  15.373210
Ru  -19.757896 -31.790650   9.784480
Ga   25.364974   7.599275 -23.425090
Nb   -3.125298  -1.551365 -42.128926
Ho  -12.703928   3.779007  -4.079363
Zn   -4.856546 -34.637204   1.719203
Y    16.395509  20.170428  26.242077
P     3.603874 -17.589067  -3.125148
Cl  -25.218960  -4.154793  -0.121797
Zn  -29.597946  -9.690316 -10.577190
Dy    6.573485  28.864190  20.928623
Eu  -13.236706  -8.148937  37.646106
Sm   -8.200896  28.946449 -27.393905
Li   19.533693  -1.936519  26.589315
Nd   14.105958  28.104355 -24.511376
Sr    2.682861 -28.380150 -22.990062
Te   30.180867  15.637679  13.921289
Al  -29.011766 -28.206074  -9.380953
Ga   31.111762   1.829737   2.859886
Be  -35.216847  15.615614  -5.268172
Ne   12.727856  16.258591   6.132485
Ti  -28.552868  16.766061  -1.480258
Cl    5.017449  25.319073  11.691620
Rn   -9.461055  15.572234  -4.817346
La   -7.057500 -16.047062   6.441241
Ni  -10.304322  23.319108 -30.239742
Pb   30.743892  14.659128  17.280763
Ag  -27.907850   6.875142 -30.044521
Er  -17.676936  37.553407   4.872727
B    -6.912469  -2.628541  11.042543
Sn   -5.904664 -36.058286  -1.436471
Te  -13.920035  -9.986912 -15.024521
Tl  -17.077784  10.411652   9.797002
Rh  -36.277639   3.325288  -0.693948
S    -5.610359 -41.227839   6.596414
Bi   -7.990027 -25.906368   3.286555
Mn  -32.282639 -16.221652  22.241474
Ni   -8.630207  27.495166  13.844113
In   42.125193  -2.792994 -14.187156
Sn  -24.960946  13.120192   8.525499
Sm  -10.000964  -3.981620  26.232306
S   -31.631798  15.150822  17.882037
Fe   24.346429 -19.770274  18.042802
Co  -31.402755  32.579001   2.623439
Si   21.075407  23.946921   1.907883
Ba    9.814557   6.072263  35.294742
Se   22.951083   9.061921   1.643895
Yb   21.562198  21.974373 -32.849905
Sr  -35.001847   2.506264   0.048135
Cs    5.650553 -43.688186   0.397220
S   -32.660412  12.773061 -14.751714
Se   10.534919  32.819290   3.618818
Tl  -36.630107  -6.038900  -7.370095
Be  -32.627578  -1.855339  22.076279
Eu   -9.150099  11.100938  29.220942
K   -38.271053  12.445795   0.827117
Au  -32.192592  -4.076598   1.843838
Cd   -3.779453 -24.999071 -31.216532
H    -8.824389 -31.580589   9.733473
In   21.915478 -15.562651 -22.444781
P    11.383881  34.818833 -15.469501
F     6.056197   6.945557 -15.809248
Rh   -2.303191  11.716251  10.692428
Si   36.904990  -6.356097 -16.862396
Fe  -42.000064  -0.038500  11.687659
Fe   29.356448 -11.791248  -7.054833
F   -16.469536   2.888624  -0.390915
Er  -23.503698 -15.915889  -0.617121
Li  -17.684200  22.429561  26.841642
Zr   20.655092  25.318639 -28.399037
Lu  -19.751275  12.139647  38.276828
Bi  -40.561525  16.420827   8.194201
Yb   25.591137  25.363319 -16.554938
As  -36.641733 -19.406525  14.428030
Sm  -17.566919   8.297439 -20.936568
Te    6.222288 -27.272943  20.724518
He  -26.540577  -6.003455  35.344673
Kr    0.629220  34.374273 -10.169599
Na   27.245742  30.196722   9.735262
Si   21.212090   8.848410   5.690850
Eu   16.499776 -38.481814 -15.735583
Bi   -6.584408   5.240501  -2.941486
Si  -36.012989  12.795265  20.057886
Cr    2.518936   7.970868 -33.901087
Tl   18.130502   3.025400  10.542350
Ca  -13.744700 -21.168051  25.745962
Hg    2.987167  32.524396 -21.801281
As    1.156259   8.383121  18.345448
Ce   18.676556  30.105708  20.949424
Po  -18.081139  17.398037   3.553032
Ge  -24.880720 -34.149109  16.835414
Tc   11.763627 -32.945183  26.872483
Dy   16.420041 -18.095194  25.561762
Pd   38.368373 -16.007887  16.214133
Au   15.568699  15.805170 -27.584053
Os  -16.444760  12.744170  15.283249
Ti   28.642069  -3.808382  -6.583695
P   -43.037644  -6.167439  -1.447413
Ar    0.777144  37.989205  11.703954
Mo    7.624814 -41.397399   6.009352
Ni  -21.909489  -1.915661  -5.733070
Ne  -14.768467  21.216073  -4.897884
N    -6.418060   5.961795  18.468219
O   -26.844410 -12.555627  15.563926
Cr   -5.201380  -6.934927 -22.456939
H    -5.475004  15.572783 -26.288897
P    25.462634 -28.289876   0.059693
Ni   17.339422   0.800936  -2.873319
Dy   16.584864  -2.503942  14.681794
Be   27.663027   5.879319  13.378219
Cr  -12.439559 -22.983334   4.353652
Sr   -2.390386 -43.219341   7.661412
Cl   35.600946  -0.792608   4.947646
Cd    9.007845  -5.602665 -37.394913
Pb   34.851276  15.182151   7.271072
Pt  -21.605280 -28.707563  -7.428698
V    15.577085   3.328558 -28.717122
Sn  -29.543208   6.587366 -18.011592
Os    8.353990  38.225872  14.235436
Sn   33.396039  -0.823076   9.424518
Te  -15.117281  17.187782  38.779382
B    25.449843  12.990028   7.578650
Pm   -3.640029 -33.708899  13.483077
Au  -25.626733  -6.034843 -37.262975
Li   -0.271449  29.330473   7.043470
Ar   27.030059 -20.181003  -0.411708
Sb  -12.445762  16.713856   9.986091
Ce  -11.232154   9.944788   5.445014
Tc   32.560141 -21.507260  -3.342539
Sc   25.524328 -16.239331 -17.661472
Lu   -9.752233   8.347694 -26.048643
Be  -19.899094  33.908244   1.061167
Hg   24.990770  26.262165   4.329089
Kr   -8.622208 -27.572408 -33.442226
Zr  -10.966900 -16.028748  -0.822329
Mo    6.344609 -13.146903  42.337069
Y    13.083822 -25.483651   3.722431
Fe    2.232372  -3.670019 -13.430509
Br  -27.989071 -10.425867 -22.122130
Nd  -19.792077  21.077935 -11.126970
Mg   26.778869 -11.572387  27.109520
Lu    2.591323  21.880507  24.498156
Zr  -20.700360 -24.340217   3.477373
P    15.521069 -28.915482 -13.383689
Kr  -29.109234  14.783974   2.871505
Br   19.008674  -7.113485 -18.312134
Sr   -0.864853  21.636725  -1.403712
H   -17.036043 -14.567799  -4.193859
Ti   29.918345 -19.516579 -26.314472
Rb   19.754260 -11.916343 -21.056519
Lu   14.915773 -15.927745   8.028166
Ni  -19.790254  19.501354 -35.628636
Ar  -23.059541 -22.224639  16.777806
Cs   15.125986 -30.374411  23.104911
He   -1.636069  -0.004014  25.928485
Sn  -23.610093  31.828642  12.046528
Ar   -0.551562 -28.433283  33.044549
Dy   -8.847275  17.409499   3.766647
Li   18.329023  15.205893   1.480859
Be   16.673738  36.028364 -20.512226
Ir   -6.111530  35.945176 -11.123493
Au   28.973338  -8.646891  22.417438
F    14.308646 -28.207470  26.569252
Se  -21.655378  15.199174 -20.562887
Ta    5.892493 -19.069013  35.589540
Zn  -23.615776   2.205708 -35.034810
Cs    9.482067  12.608545 -18.075817
Sc    0.669814  13.558007 -42.274921
B     1.448885 -19.553518  15.500675
V    23.986690  -5.473519 -16.889314
Ag  -25.616204  18.807617 -14.883003
Bi   -5.361060  12.611674  16.106216
Cr    7.826854  10.089893 -34.791159
Mn  -23.990263  18.894692 -24.894283
Mg   -5.045279 -27.988579  30.946455
Ni  -35.179098 -13.028701  -0.766123
Ho    6.811869 -28.307879 -14.280423
Li  -29.781426 -31.620867 -10.736056
Nb  -35.395515 -14.717896 -11.099871
V    28.713683  -0.843402  24.812612
Pd   -9.287700  10.603803 -30.039285
Rb  -15.833613  25.871852 -10.557063
Al  -13.789684 -34.033866  16.070876
Nd  -15.742656  25.812198  12.198671
Eu   17.851251   6.393695 -29.640123
Eu   -1.719160   2.326447  28.921191
Si  -12.136129  -8.264410  38.938097
Li  -18.153824  11.751337 -17.214894
Gd  -36.867830  -4.016521  -0.361658
Kr  -21.298657 -18.574217 -29.224579
Li   17.670182  -4.451820  20.208215
V    22.156365  -2.664690 -35.684888
Rn   -9.855358  36.685413   2.630156
Xe   -1.397428  12.233198 -26.351624
Sm   32.559479 -29.143139  12.871502
Tm   11.143415  41.292486   5.320660
Cr   24.860607   8.645275 -20.337337
He   10.568543  17.379798 -18.945360
Al   24.123588 -13.747551  32.751635
Br   16.314175  12.307314 -32.436857
Tl   24.724596  36.118831 -10.548737
F   -12.515021  14.707897  20.939339
Eu   -0.414263 -30.414323  31.727488
Pr   10.412226   6.000674  -3.887915
Ge   -3.651884  33.466080 -15.939544
Au  -11.483087 -39.691283  -3.374386
Ti   -1.820169  28.744085 -13.580954
V    17.305649 -14.480526  35.415713
Eu   35.196694 -22.581722   3.008070
Tc   -9.088040  13.515757  18.853201
P    35.453720  -3.472692 -25.778731
Ir   -4.155069  -8.066773 -35.251940
Kr    6.976810  19.544720   2.246330
Po   -6.612600  23.571445  16.549693
Xe   29.443003  10.887920   6.072225
Cs  -10.251134 -15.716743 -12.312327
Te   -5.464410   7.247348  17.259775
I    -1.365216  15.426689  15.631708
Xe   25.105585  10.290686 -14.059726
Pr   21.771247  18.645405  31.653380
Er   -4.447822  14.023088 -41.209045
Y     9.858417 -31.387317  24.465630
N   -21.225477 -14.999505  28.536913
Bi    1.201716 -36.806806 -18.997587
Mg   24.465496  29.366847  -2.547188
Mo   14.343331 -24.873276  14.007331
Tl   17.652109 -10.401270  18.707649
Zr   26.573569  20.825495 -19.676936
Dy   37.788264  -2.413436   9.437847
Ag   -0.427414 -27.121209 -22.468478
Pb   10.414452   8.267374  42.864061
Te   19.739979 -23.378573 -26.963661
Sn   21.876781 -30.556038  -5.534599
Ru   38.906882  14.194019   3.776287
Pb   20.125473   6.180801  35.986914
Sm    4.190489  28.660681  32.052953
Cu   -8.984725   8.170005   3.366108
Mg   -5.203443   5.404680  35.067350
Rn   -6.073671  33.596827  18.410776
Hf   19.984003   9.423235 -27.639634
Br   30.203825  10.502478 -14.147315
At    9.891052 -21.564225  -3.393786
Cd   41.276691  -6.236278  10.240948
Zr  -24.262625  38.236729  -0.284688
Pd   26.613332  19.786509  12.633547
Sm  -24.926743   0.778041  34.284285
Rh    3.803632 -10.769359 -16.037114
Ba  -28.793373  33.789009   2.279181
V   -20.663133 -39.003401   9.450995
Ca  -23.667401 -14.926431   3.002475
Mo   40.611607  13.312393   9.445272
I    -5.213372  28.879357   8.039464
Sm  -25.923483  -6.231916  25.667616
Ca   25.327079   0.144296 -36.239870
Tc   24.182155  13.674052  -3.068442
Fe    5.701883 -18.147104  23.758142
Zr   19.055317 -37.107750 -18.003606
Cl    8.062572  -0.076188  24.246247
Ga   18.042839  33.923806  18.951916
Sc  -11.712593   7.773110 -36.122474
Ar  -27.865828 -15.721964   6.317573
S    -8.126659 -10.370328 -19.972279
N     4.072116  14.881204 -26.052189
Tm  -30.481220 -29.914386   8.186404
Ga   -3.552694   1.118804  17.684263
Ga    7.692465  24.877270  13.061495
Ce   -8.701945  14.335229  33.746632
Pm    3.044004 -22.632003  29.207884
In   15.516900  -9.710607 -38.915466
Sn  -24.167894  21.762830  -5.057559
Cs  -30.733150 -18.988940 -21.536644
Dy   10.776589  27.986598   4.182986
Nd  -18.270209 -16.680677  -0.302691
Zr   28.553891 -35.347102  -4.897838
Sc   17.256476  16.767412  11.582347
As   14.625827  29.407185  -2.184886
Sm  -11.994240  -6.720300   0.723473
Sb  -10.285343  27.904616   0.826771
Lu  -17.954042 -28.679235  -7.236912
Os   -5.557918  -2.022098  -6.492856
Lu   34.527954   4.151739  18.581606
Mg   22.238044  32.874548  -4.789032
Cs  -26.641387   6.399920  26.424770
H     7.379548   7.554649 -39.190472
Gd   20.848300  19.084740 -29.237354
He  -16.855066  -0.480519  18.062003
Li  -42.107617  -6.773878   7.310754
Sb  -20.971150   8.117095 -18.671996
As  -16.926665 -37.143247  12.859372
W    -7.346209 -23.024142  21.627322
Be  -24.825018  36.808184  -8.186152
Ta   33.655732  19.311036 -18.028491
Mo   -5.621192 -15.259461   3.902955
As   14.116806   9.067763 -18.391028
Br  -20.180600 -25.036810  30.872316
Ir  -10.541238  11.257467  35.633372
K   -40.681909  -9.352735 -17.967131
Os   -6.813646   8.517117  11.346867
Dy  -14.039654 -30.727140 -20.717777
Tb  -22.801507 -30.428834  -5.857874
Lu  -23.388363   6.480715 -25.126509
He    8.267800  14.982187 -13.740052
K    20.794793  23.418415 -18.523144
Pb   -8.320305 -14.488457  12.752698
Ca  -24.698368  19.431698  -4.616329
Cr   23.476859 -11.590218 -24.925548
Eu  -15.285183  24.574241  21.112839
Dy   -9.464949 -18.973500   7.785363
Al   26.597320  -6.256811 -16.833705
Sn   22.687287   7.874676  -1.101290
Lu   -1.917139 -26.111382 -23.968963
Au  -10.610653  18.170383  -3.370486
Pt    5.702089  11.317121   9.191709
Cs  -28.780785  14.949160  28.143445
Na   29.567269   9.765091  14.962743
Ta   -6.136625  14.966702 -26.557684
Pb  -10.615610  -6.659336 -16.970822
Nb   -1.443272  26.345324   7.741804
Si  -31.068451   6.986489  21.720745
W    37.816806 -10.568792  -2.641074
Ru   20.462984   2.499023  15.291736
B    33.497645   0.896394  30.642777
Ni  -44.020221  -7.739418   7.619715
Ti   15.121915  19.697721 -12.961820
Hg   17.337144  33.826000 -16.670191
V    22.309048 -12.477558  14.031243
Br  -32.809629  -3.812327 -25.842050
Ce   28.067909  31.606823 -11.398658
Dy  -15.069602 -22.154556 -30.990556
P    20.310795  -0.574899  32.571264
He   -2.118154   2.283602  39.141080
Sc   34.283188  -2.031200  16.866515
Pb   30.406023   4.953912   0.634339
Tb   17.808257   0.748042  39.745728
Ho   14.856391 -11.554475 -38.482314
Nb  -12.225086  32.974479   8.379354
Ge  -22.232268 -16.539884  12.276930
Nb  -27.212652  15.746831  26.926784
Ho   35.075172   9.742771  26.205465
Cl   -7.568480  38.858565  22.154609
He   12.258856   5.422058 -37.133335
Os   -4.340315  -1.427477 -31.450438
Ti   -0.603600  10.754686   7.944384
Li    8.867220  19.196313  23.093609
Ga   40.564402  -3.738720 -10.366040
Ne   28.853480 -13.871465   9.501607
Yb  -15.476162  -9.051038  -1.879047
La   29.311886 -24.195720 -24.581170
Sc   28.171342 -32.787799  -6.303231
Kr   -9.768388  24.064499  30.503478
Ar  -38.202843   4.798295   4.569139
Y     4.531423  -7.887219  37.259580
Kr   16.980856  -1.946960  23.623188
Tm   16.684845 -34.983659 -15.338128
Co   19.341328  32.398972 -13.551987
Br  -20.319776   1.318254 -30.087392
F    34.003209  -5.762486  17.544924
La    5.275345  -7.180054   1.424795
Nd   -3.908953 -22.651775 -27.234876
N    13.061692 -31.504653   9.852554
Rb   20.866868  -2.198624  11.866649
Ni  -10.618358   4.459143  39.662811
Tc   15.572425 -29.775999   8.947640
C    23.459818  33.126484 -11.617796
Co   -1.583981 -28.525469 -32.794293
Li   -5.212906  13.529612  -3.766983
Al  -23.614414 -10.702543  12.960341
Cr   24.030232 -17.155717 -27.505956
Ho  -16.134018   9.157653  -5.741036
Tl    2.140734  37.017265  15.700385
Cd   -0.919066  31.347036  16.464454
Lu  -25.467101 -15.460533   8.195924
Mo   -2.113401  31.768985  10.432575
Al  -15.464395 -20.508761 -20.749205
Lu   32.202059  13.728644  22.540444
Cs   16.449836   4.573222 -39.869741
Pr   -2.117500  27.427908  28.683214
Fe   25.533355  31.336230  -1.978387
Eu   -0.488907  -0.932062 -41.792236
Be   35.766961  22.439993   4.822744
Dy   -3.244920  43.377062   9.528700
F   -13.390188  13.565749 -23.168532
Rh   -5.907361  31.538877   0.339788
P   -40.256075  12.562273   5.872667
Po  -13.129601 -31.105577 -18.869672
Tm  -37.571305  -4.050289 -20.169991
Sb   23.469784 -16.114949  -0.402676
Xe  -18.778348 -28.854088 -18.567716
Zn    0.371202  16.189889  20.013654
Bi   24.422409  10.163542  34.508738
Gd   21.366801 -18.188134 -22.334147
Tc   31.136015  12.546999   8.861641
Cl   -0.147980  17.172796 -14.274642
Mn  -11.692097   7.153020  30.166678
Ce    8.091526  16.075689  38.160546
Po    3.569732 -19.368426  -8.027568
Ru    7.099347  43.754115   6.563853
Na   13.326468  19.496398  -5.891782
Os   18.682549  33.198392 -15.716173
Hf  -29.270218   7.230229  26.184572
Hg   -5.918874  26.625386  11.622617
Rh   -7.180760  39.285794  13.980727
Be  -25.947776 -29.764154  10.766557
N    36.921321 -13.613165 -14.256160
Hg   -7.908969 -30.583390  16.583521
Ba    1.504682  -4.312807   0.211350
Eu  -34.236625  12.442865  18.835571
Cr    7.244348 -13.947561   8.155888
Mg  -14.551201 -27.857969   4.756732
Nd  -26.491890  17.994072 -14.417015
Be  -24.993935  24.084593  -8.372210
Os    0.177995  39.249296  16.417788
Mg    4.426124   7.010993  28.132199
Po   35.419827   2.760645   4.512465
Be  -24.210188 -30.875831 -20.752228
Ta  -30.386090 -18.067110   1.092677
Cs  -20.287883  27.024777  24.124706
Kr    7.717554  23.748050 -36.885201
Na  -38.019531 -20.736222   0.411327
Xe  -20.475564 -23.735444  -0.544130
Y   -15.763057  25.227222   6.507153
Ar  -19.757664 -29.339653 -14.815174
Pd   -0.633824 -24.460030 -20.419956
Nd   19.689244  10.535320 -31.901479
Ta   29.625193  11.832179  19.279031
Rh    0.481410  -3.915921  -8.490746
O   -33.517806 -23.139122  -2.746803
Au  -20.815848   1.089204  39.764178
Ar   18.198098   3.817332 -31.349412
Rn   -9.598645   4.859766   6.224684
Tc  -23.641758  11.418409  21.861065
At    9.729155  31.354866  21.393143
Yb   15.073750 -25.280707 -33.958699
B   -29.253901   2.053362 -22.701185
Sb   -0.860720 -23.260429 -12.198958
Ru  -14.546981  -8.087957 -35.818205
Ho   23.347217 -27.956900   5.368432
Tm   -8.486394  40.991501  -3.185384
Cu  -20.202846  26.639704 -28.102898
Au   10.048273   2.143447 -10.928118
K   -24.715778   7.943287  -2.556997
Rb   -1.458493  32.342075  -3.048198
Li    5.473738   7.539488 -39.101269
Zn  -29.429807 -23.939360 -13.258479
Br   34.433597  25.315609   5.995755
Co   20.044223  -1.174099  13.568576
Xe   -3.193977  35.540153  22.354417
Ag  -28.577712  -9.893889 -13.197990
Pm    6.627429 -28.144200 -16.771146
Ge    6.278210  15.681110  -4.393526
Re  -29.497066  13.151041 -15.799369
H    -2.314612 -14.081477   1.936211
Er  -25.189962  -1.679602  31.100347
At  -22.759673 -28.743154 -25.297458
Ca    5.767596  -3.106056  10.966750
Re   -6.177418  37.151203 -13.410839
Bi  -24.062626 -23.554352  23.379387
Ag    9.300292  37.733479  -3.438918
Sr  -39.498837  -6.336148  -4.630592
Rn   -2.542555   9.569200  39.583774
Pr   26.079622  -2.439720  21.303307
Ir  -15.959486 -18.404966 -19.612068
Y    -6.347154  43.304830  -6.236849
Lu    8.155740  16.994502 -20.174322
Bi   -4.322647 -30.731918  -8.908800
At   19.111151  10.726386  21.957898
Xe  -36.968774  13.537103 -17.862029
Na  -21.425924  34.943774  10.527755
Sm  -25.501183   9.529193  15.032611
Os   25.832580  -3.538828   7.776735
Tb   15.082542  -5.979356  -9.478595
Se    7.966305  30.494993  29.405036
Tc   -3.156940 -20.696526 -20.374870
Pb   28.011517  -4.905167  33.154184
Ru   -4.778206   1.008327  -7.779090
Ce   12.296227  -3.291745  43.554712
Pd  -15.518307  24.624795   9.938476
Ar  -14.967521  13.376936 -16.332139
Pd   10.590414 -12.253309  28.531087
Re  -22.080325 -12.795015   4.872858
S     3.866198  31.005468 -19.431114
Cd    4.312856 -16.860893  27.703227
Lu  -30.798670  -3.434338 -20.843117
Yb   16.905184   0.533428 -24.878955
S    18.253010  -7.374897  -5.642947
Ar   17.153888  10.817808 -14.743735
Xe    0.072437 -15.578789 -32.704949
Na  -14.602988  12.781814 -24.108962
Ho   -4.985062 -34.191703  24.589942
H    13.665853  10.882362 -11.675408
Re    8.837162  10.101057 -40.317538
F    11.644205 -11.074780   6.087779
Rn   -5.048215 -32.818916  -3.121530
Po   27.682906 -12.926891  -2.583169
Tl   16.599222 -21.663217  30.387026
Sm   33.536535  16.259645  15.766036
Gd  -14.966327  24.547725  25.874772
P   -13.268369  33.012091 -27.755782
Mo    5.890368 -43.271436  13.221212
Co   -8.263789  11.225593  40.954477
Kr   -3.166787  14.931331 -41.793628
Si   11.689612  13.653936  21.910731
S    -3.076151   7.857796 -26.664712
Po  -15.168419   5.044086  41.881138
V   -43.560469  -4.567093  10.845698
Se   -8.734814  20.382960 -34.632651
Zn   -1.237346   4.137968   5.723272
Eu  -13.959762  34.019168 -11.801456
Er   12.407322  25.845439  27.582676
Hg   31.475292  -1.153074 -14.036829
Sn   -9.090960 -21.529719  11.192611
Ti  -24.530709  28.705591  16.189912
Os   -9.483868  13.519649  -0.835417
Ti   39.787765   1.455557  13.286824
Er   15.085856 -18.752994  -7.777539
Rn   20.192446 -21.897748  10.969758
Hg   39.621433  -3.006266  -7.954046
Sr  -21.899426 -15.304272 -11.808918
V     7.472518 -34.574967  27.288817
Rb   26.992802  -6.567869  35.897423
Sn  -26.414382  10.225841   2.646090
Po    4.023929  19.329903 -13.151152
In  -22.521722  13.428813   9.371573
Lu   -9.165616  20.688538  -7.216052
Sn  -19.379533 -20.089685  29.263070
Cu   20.535143 -29.048129  -0.254541
Si   -2.344626 -30.621302  32.133240
Pr  -34.392690   2.319276   9.296108
Hg   -0.312788   6.743599 -15.804660
Cs   30.570154  18.328214  -0.602195
S    -5.775371  22.530546 -35.082820
Li   17.726600  -2.260178  23.064536
Si  -13.451904 -18.133277  26.758581
Pt  -25.845817  28.611853  -9.829919
Ir   -8.681227 -19.353180  16.388614
Hf  -14.956165  -2.023957  33.092410
Pd   30.340553  22.974081 -20.751741
Ta   11.497694 -16.682973  12.000525
Pm    4.827033   4.302523  -8.359807
Sr   31.466319  15.275176   6.416156
Pr  -21.208848 -26.139669  -5.495086
Ag   -2.724963 -36.654091 -13.768701
Hf   13.198694 -24.371881  -4.980526
Dy    4.646442  -7.804645  -7.820282
Sn   -4.014944   8.883031   5.571976
Cl   -7.453232  15.939733  11.198239
Na  -20.920501  -3.181152  29.384874
Dy    5.198034  -0.006812 -42.797115
Ho    3.333763  42.469743  16.364176
Ta  -34.473736 -19.274017  -6.430568
Pd  -33.266910  20.787806  -4.170031
Rb  -41.932782  -9.578957   7.984392
Nb  -14.207621 -23.551261  17.380959
Al  -37.591573 -15.215793 -19.399056
Ga   35.636916 -23.989291   8.226682
Rh    4.107663  -3.602312  31.967962
Te   22.772241  10.160527   2.552164
Ge   -4.850002  -7.473707 -21.108949
Pr   20.512175 -36.675050  17.635375
Re  -33.839593 -18.070976  -1.093329
Mn  -23.784508 -27.765050  25.293984
Ca  -26.390929  12.476393 -33.504992
Kr  -23.969590  -2.787510 -37.984809
Fe   -7.974600  -6.598869   6.799550
Cs   26.644616 -16.152325  19.439126
Ru   13.041372  32.097085 -13.746451
Si   13.085903  42.263917  -3.208121
Mg  -19.016139  27.635377  25.840523
Hg    5.440680   1.577656  -3.351089
Mo    1.669639 -39.529112   3.660407
Dy  -10.993057   3.256955  36.641723
Sn  -13.114065   3.687825  23.950483
K   -25.624456  -1.540824  11.082883
In   -9.794790  16.016009 -40.092564
At    2.129019 -29.057569 -32.031688
Y    -5.267374  20.341559   2.516116
At  -10.973249   0.436180   2.815466
Au   27.156469  -4.146709  29.933244
Rb  -16.217579 -13.944006  36.144876
Pd    4.198719  13.169176  18.210140
Eu   32.079648  -4.699672 -18.994332
Re   32.486811  -2.445463 -22.531476
Tm   -0.031953  25.821102  -0.551914
Ti   -9.118517  12.011614 -10.344960
Hf  -32.551507 -23.944021 -15.500570
Ca  -21.580637  28.799267 -21.280451
Nd  -32.253724 -12.703069 -18.639815
Kr   37.035300  -8.666610  21.679907
Be   -7.034124  11.460418 -26.821217
Re   17.625936   5.286201 -11.425539
Nd    7.064999  40.854979 -14.907135
Na  -21.491870  28.580887  -5.481770
Er   -5.020809  23.032097  19.293430
Al   17.259390 -13.819812 -24.020540
Ce    4.374493  25.966724  12.099652
Mn    0.608896  11.981003  34.076647
Ba  -27.526840  32.589372  -2.800721
Cr   -6.412592   9.386735 -33.379139
Tb   43.026512   9.570291   6.834679
Eu  -23.963067  10.844776  16.827696
Tl   -5.505283 -10.964848  34.911969
Ce   -9.832467 -10.384183  24.835463
Ca  -31.037657 -20.494402  23.037744
Be    3.280885  -0.893339   3.265653
Ti   -3.346625  26.896750 -29.418257
La   28.561510  12.537225 -17.513361
S    22.008006  14.467080  27.700022
Os    8.084122  -0.257017  -3.915021
Eu   -1.745872   8.602006   1.549110
Re   -3.485559 -19.888134  29.621271
Ti   -6.790603 -34.702687 -11.706547
Nd    3.815360 -15.075781 -39.541781
Fe    6.619242  30.594513  29.056210
Tb    6.854988  17.395486  25.192580
Tb  -16.151674  19.344036 -29.400423
F    -8.336553  35.171658 -20.522389
Cu   -4.336873  20.836888  -2.302218
Pt   -3.370594 -31.619809   0.691898
Ne   16.308853   5.144892  18.716782
Ne   19.573357  -2.098840   7.984614
Cu   15.592596  -9.030302 -41.127335
Cd    7.076483  18.459500  25.820614
Bi   16.135533  -5.024080  22.436316
Yb  -22.916863 -21.452659 -23.069174
Fe   37.571308  14.038746   4.822640
Sm   13.901943  -5.507721   7.491888
Si    3.318745  26.340398  32.178283
Sm  -19.692426 -36.479304   7.226331
K   -25.335121   9.555365  23.637044
Pt   16.133332  13.477005  -9.482988
Sb   -1.419858   7.583640  27.549047
Hg   -2.290409 -40.818304  15.299195
Er    7.827198 -15.601317 -15.556450
Br    3.296744  29.221963 -13.646073
Cu   23.931322 -16.531755  33.647687
Sb  -19.013709 -12.434945   5.358676
Sm   12.271687  -8.870960 -43.037841
He    0.747994 -20.029490 -18.835666
In  -23.640998 -13.105481  14.600201
Ir    5.617847   5.554956  34.766686
Nd   36.860888  -3.333067  -0.202854
Ca  -23.839110  15.754240 -29.290380
Bi  -27.144194   9.590573 -28.098172
Se   30.524353  21.328932  10.297830
Y    22.054853  15.990307 -25.545165
Os    4.132729  16.552085  -4.600077
N   -34.481491 -11.144068  13.256175
Kr   15.182871  35.162789  13.242018
Ru   15.858371  18.082247  19.617862
V    30.185058  -0.654451   4.853071
Hf  -18.973566   4.424730 -17.307367
In    8.997665  36.278406  11.770382
W    -1.629147 -23.764853  13.834849
Zn   22.503823 -18.423390  27.992874
Si   -6.606478   2.278098 -36.058801
Ta  -13.349044 -10.247883 -25.037449
Si  -28.237191 -16.080913  -7.850191
Be  -28.958815 -11.752926  14.057400
Kr  -17.375041  15.119302  -2.711872
La    5.662475 -41.578981  -3.940656
O    -8.006801  23.120476  23.932734
Os  -14.000158  32.082179  -7.366047
Pb   37.363285  -6.408322  15.282379
Er   21.044749 -17.650850   6.717111
Li   35.894908 -20.578271 -18.214864
Mo    6.790769   8.063118  11.454322
Cr   -3.229560 -30.558921  17.432360
Bi    4.845508   3.172637   7.976544
Al  -30.490417 -31.517219  -3.252551
Ga   15.459310   8.040918  -6.564494
B    -0.780052  28.355382  -2.287068
Mo  -10.627910  -7.984504  -7.556527
Pm   -3.335703 -35.740407 -21.775633
As  -10.917277  14.863086  30.515523
Al    1.439154   5.341851   5.242578
C    17.523365  -3.019097  37.673740
Ce   35.092634 -21.012838  15.052929
V    -9.719477   1.151942 -11.938201
Sn    0.753532  39.169515 -22.870011
V   -22.884185 -27.150274 -23.221053
Os  -12.263514  22.232671  -6.376564
Rn   -6.065933  -3.336055  20.430984
Bi    3.500964  -3.873285  38.538482
Sn  -15.879325  28.307017   8.500968
Co   26.086684  -2.312887 -30.868534
Mg  -23.172806  -4.509179 -13.463212
K    12.744063  11.666941  14.984054
Yb    4.103449 -25.143974 -30.438094
Li    0.176084   8.910515 -38.822232
In  -28.985354 -24.703593 -24.814207
Ir  -33.810074 -22.828918 -19.980571
F   -36.279642 -23.338304  -4.473377
V     6.740103  21.292247  19.919847
Cu    8.347674 -20.540410  -7.608293
W    -8.008742   2.384359   9.629991
Rn    9.913767 -11.216857 -20.507688
H    14.669731  11.753259  35.429791
Tb  -39.549908  16.644568 -13.833955
Tl  -10.178838  -4.380746 -19.057462
Ba    2.853455  11.458284 -33.794061
Pt   -5.455279   5.978116 -26.834691
Nb   32.037097  -0.556823  20.400217
Ga  -11.784593 -43.624431  -1.083253
Lu   30.599827  -6.130704  29.744270
Ho    9.249455  25.892510  26.957660
Pb   18.423580  27.645462 -28.219927
Zn    3.783691 -37.134356  -3.891015
Bi   -0.173293  -2.967194   6.134060
Tc   13.332012 -28.136172 -27.667136
Hf  -12.711904 -26.078137   9.810496
Ba   -1.499799  33.008501  13.101812
Ne   21.021158 -14.272990 -13.144044
Tm  -36.276953  -6.098773   8.698832
Er   -5.737302   7.592439 -38.011812
Lu    9.237440  13.011216 -19.631202
I    13.896428 -19.410151 -14.195000
Mo  -18.104900  -6.466422  21.433054
Cr   -4.500497 -12.248157   5.770252
Zn  -11.309323  -6.787611  18.662469
Sc    8.030975  -6.155392  -5.462663
Rb  -17.812051 -27.691883   3.844674
Kr  -34.491229   4.299179 -25.272587
Br  -19.119441 -11.328280  25.081843
Bi   -0.571737 -28.468022 -34.367804
Tm  -20.402691  21.110816 -33.335866
Sr  -33.367456  15.319128  -1.605586
Sr   -3.990160   5.108480 -27.332708
P    -2.760418  16.884890  -9.723734
Cu   34.609054  10.972128 -12.529103
Nd   19.232791 -27.192201  26.806638
Xe  -18.828793 -29.297399  28.333461
Eu  -11.282919  11.849897  22.100266
Ta   10.167782  21.528841  38.851365
Y   -40.502272  -2.156200 -10.422331
Pt   15.698012   2.975866  35.751462
Sb   13.111447  -8.520842  38.135370
Br   14.546024  33.015009 -17.261855
Hg    8.204058   9.280435  16.529679
Rb  -22.896277 -26.904976  -6.291249
Y   -38.801536   0.758719  -0.335953
Nb   17.343276 -40.059666   2.741526
V   -18.374943   2.757023 -21.417366
Hg  -32.197458 -22.717043   5.154773
Sb   -8.668895 -27.576128 -17.112502
C   -23.918826   1.198907 -23.794351
Sn  -24.032046  12.944898  15.198841
Nb   -9.232264  22.244302  23.166840
Zn   -2.681183 -33.940187   4.438781
Sb   17.116159   2.302788 -19.017620
Er   -0.150817 -31.996615   1.571564
In    3.767362 -19.643323 -23.361278
Ne    1.295750  19.593275 -34.953382
Rn  -36.479475 -14.708287 -12.233171
Mg  -23.713068  20.377922   2.561921
Ar   -5.458668  -3.852343  36.471107
F    25.836488  16.846715 -29.328477
Ti  -15.168136  36.268452  -1.449541
Gd  -28.873171 -13.894589  11.846523
Tc   -4.071918  17.386646 -39.590870
Ca  -10.285237  23.230218  35.321893
Sr   28.249946  24.736733   3.705353
Fe   13.535042 -30.453264 -23.539499
La   34.660230  -6.307682  -2.360549
Zr  -21.808848 -11.375316  23.819091
Co  -29.132301   9.799463  17.734459
Mg  -27.891368 -31.113953  17.332739
Cd   17.529343   5.436539 -18.630203
Tb  -23.753050  17.295395 -33.706833
Er  -30.942751  18.339565  -9.842101
Te   10.971827 -42.020564   9.384250
Fe   10.246007  43.219248   2.992439
Ge    5.270780 -30.746571 -27.343514
Zn   -9.101536 -37.360263  20.848866
B    43.649824   7.435376   2.234403
Sn  -32.322635 -30.188877  10.151086
Cr  -29.241425   7.347195 -11.618231
At    9.917465  -5.802270 -16.122317
Yb   19.153363  -7.666226  -6.386652
Ti   26.588448 -14.533040  16.060056
Cr   11.092734  10.037931 -14.864698
Pm    4.678017  -3.518258 -13.511090
Bi  -11.433345  43.234991   8.168983
Pb    3.458425   7.483398  10.427669
P   -43.164318   7.952056  -4.191292
In   25.705637 -20.824216  11.877502
Rn  -22.365669   3.638713 -21.564200
Sr   26.321150  -0.989074  24.197192
Be    2.341062   3.727915 -13.965495
Nb    2.518008 -21.050161 -15.248519
Os   13.498906  -3.782859  14.582128
Gd  -16.912415  32.745490 -16.811645
Pb   -5.708229 -30.785256  -4.584943
Sr   34.106931 -16.704861 -13.215248
Tb   31.061037 -14.904193 -18.333059
Li  -23.525940  11.119843   9.822863
In   18.970926   5.065438  -6.340266
P   -43.536656   7.995167 -10.496652
Tm  -19.290109 -37.808324 -10.460928
Xe  -20.413455 -35.550455   7.280344
Nd    2.143131 -11.749419  24.698564
I   -31.950124   6.030506   3.279708
Tb  -33.026150  -6.313917 -20.263452
Ag    3.719858 -34.874834  -8.427986
Ne   -3.526873  -2.173925  30.184989
Sn   11.532210  16.312383  26.338423
H   -38.783713  -0.037848   0.381645
W    38.181428  10.319974  17.358145
Sm  -21.208357  30.426387   6.830803
Re   -8.820142 -43.508134   6.228090
Ce   10.582752 -22.150827  35.255954
V    11.615363 -31.790613 -30.359017
Rb   10.406034 -19.381652 -27.187907
Si    7.015775  43.690088   4.417391
O    -9.191163  32.513461 -20.969632
La   -6.151584  18.494174  -6.340723
Rh    8.383000 -14.178876  21.711018
La  -14.926511   8.965495  22.586006
Nb   -1.016935   4.901170  20.797918
Li  -21.849611   2.218435  26.300819
Eu   10.509460  36.377187  11.887366
O   -36.258536  21.388125  -1.510368
S    19.760472  15.592450   1.377006
Co   10.479633  27.748871   7.553566
Rh    7.963264 -42.993584   9.397561
N   -12.456574 -25.469886   7.854087
Sc    1.126438 -17.155866  39.898547
Be   23.808332 -32.177961   7.342192
Pr   -1.379813  24.447892  -7.910762
B    11.853506  16.428915 -11.505590
Pr   18.757261  -0.842051  -2.152657
Nb  -28.835467  -8.028462 -13.406938
Pb  -18.220260  25.363361 -17.492503
Ir   27.438736  13.520114 -32.490454
Na   33.835361   7.339850 -20.154182
Po  -10.717852 -12.715497  -2.358134
Ga   39.915924  -8.684601 -20.367559
Ge   -3.497721  23.713169 -38.055575
Ca   17.456436 -11.523967  32.127443
Si    5.435847   1.362241   1.627959
Na   19.719057  26.677677  16.084838
O     2.066434  37.579442   0.258392
Sn  -35.197416  26.224604  -8.470966
Po    1.395892  11.701624  37.746601
Ti    8.172709  25.656708  12.773774
As   12.643856 -14.120601 -34.382206
Tm   19.239584  28.312220   5.610234
W    18.007522 -36.541510   0.276514
Ne   -9.759409  21.614419  29.531409
He    0.374881 -13.784201 -23.086036
Po  -42.500392   5.367342   8.735660
Li    1.418850  17.703044  -5.134712
Ar   36.083654 -18.390917  20.966128
Ba    7.880357  -9.410151 -23.289967
Ca   -0.716925 -13.556467  -7.490347
Pt  -11.557023  11.261665   4.482104
Rh  -22.871595  -3.297532  38.325144
Cr   -8.566965  16.923203  13.054599
Kr    6.585223  11.664481  34.632568
Br   23.629254  18.508621 -17.183291
Rb  -28.229945  23.438066  18.924847
Cu  -25.116181 -35.025156   0.600398
F    18.557531  -5.452847 -21.786618
Re    8.968369 -17.105893 -36.937893
Eu    4.924993  16.316515  38.638465
Ar   20.993538  12.053353  -0.389999
Eu   -1.759023  29.912190   6.475732
Bi   -0.456845  19.406217  17.028931
Se   34.023879  -5.677017   3.000316
Pt   30.499811  -8.329098 -14.192671
Po    7.882821 -23.675796  -2.104371
Ge   -6.369829  15.190515 -41.004173
B    13.876502  14.236367 -32.331220
Sc  -23.151896   7.225879  33.485255
Ir   31.223535  22.286482  11.234227
Cu   -8.426271  33.784908 -13.635704
Ti   26.977980  30.753307  11.994274
Lu    8.852266 -15.819593   9.000267
Tm   -3.540310  20.249883 -35.589800
Cl    9.222421   5.399944 -19.737002
Rb   14.249678  12.926378  32.143359
W    -0.591751  13.178991 -12.380162
Nb  -22.957952 -11.780762 -18.748374
Ni   -5.526265  -9.536098 -24.479653
Ag  -24.250362  -0.886512 -17.901109
Pb  -14.714865 -41.371920   2.297894
Ba   18.996472   8.250110  19.220291
Co   30.825578  20.121480  13.464512
Ni   12.344393  -8.886099   8.159629
Re   -7.732899  21.037417 -26.942922
Ce   -3.767139  -2.485020 -27.515233
Cr  -11.565400 -11.657104  31.953278
Na  -34.056241 -20.097843  20.488028
Bi   10.714295  35.489810  -7.438837
Bi  -11.546571  22.624027  33.890212
Be   34.613049  26.229495  -0.532392
Sr   23.637189 -18.511493  22.162362
In   30.530693  11.053402  11.512014
At  -29.818940  14.926149   8.629845
Kr  -20.814736 -37.786894  -5.964715
Mn    4.703611  -0.245998 -10.125310
Br   26.048653  15.140573  -4.234751
Ag   25.022278  23.872792  23.065350
I    18.916021   0.118240 -30.846523
Sm   -8.916040  19.659668 -15.599474
Cu  -10.715114 -26.953079 -19.212822
K   -25.414125   2.938724 -14.554731
Y    16.155558  33.393910  -9.461820
Eu   35.164663  -7.115621  25.731536
Cs   17.742155 -16.678902  -7.047389
Ho   13.324508  -4.208642   7.806710
Nd  -13.071787  23.902753 -18.717196
N    -0.928876  -2.045411 -42.622431
In    7.018653  34.536682 -14.092997
Pd   -2.392483 -37.902650 -17.967335
Hg  -19.741783  11.678226  35.110490
La    4.958185 -30.278569  28.811339
F     4.080943 -25.920737  -5.444069
Au   24.050806 -27.916876 -26.717234
H     1.556964  -1.195902 -27.221529
Sr    4.259329   8.622779  42.399586
In    6.708166  19.409500 -14.032343
Ta   11.591394   2.547432  28.233288
Tc    7.035005  26.781467   8.560483
Sr   -0.341388  -7.608820 -15.091582
V   -18.117347 -31.536715 -16.597797
Ti   23.370663  18.380452  24.664098
Be  -18.179958  -1.560305  38.142067
N    -4.307043   4.128116   1.554607
Ir  -25.502692  28.200178  14.706179
Y    12.221937   0.031625  32.689023
Tm  -27.145886 -26.127020  24.820486
Al    5.401324   6.393426  -3.382351
Nb  -16.982916  17.388070 -28.594404
Sn  -25.444257  -2.219723 -29.072782
Cs  -24.420556  25.721730 -27.922357
Lu    7.325169  17.536348  36.046524
He    9.450088   5.586666 -17.500036
Bi   18.618910 -16.050458  18.911324
Yb    7.385572   1.848310 -41.258612
Tl  -30.581197  22.855131  -6.510776
Se    9.134590 -16.553283 -31.886701
Ga   22.984030  -8.008147  30.083352
B     0.961829  16.074399 -26.553799
Rb   13.783928   3.960813   4.244899
Au  -14.272213 -38.343142 -16.857967
Ru    3.331298 -15.624853   4.168763
I    -7.597521 -16.085078 -18.512868
Zn   10.996496 -26.962215  22.967005
F    15.373473  -0.270062 -32.867889
Cd  -32.860236  17.656202   1.545167
N   -35.448013  -9.391830   9.330763
Eu   -8.485922  29.987981  14.871781
Y   -34.354663   4.920867  15.758864
Pd   -5.627644  22.783545  20.589911
Al   34.488394   2.627954 -14.633426
Ho   17.025483  40.329997   0.540530
La    6.653949  38.555130 -15.113940
Cd   12.194266  14.925754  27.834435
Re   25.357137   5.239376  -8.034429
O     6.840545   1.975901 -30.120702
Ta   28.227000  13.989410 -17.804410
Cl   28.879614 -13.564719 -30.481376
Pb    9.871394  35.899884  -0.339602
Ni   10.563850 -39.771494  -6.758397
Zn    9.949883   0.917128  14.244773
Si    4.988858 -13.991948 -15.198163
Pm   20.601055 -17.399116  29.399111
Be    8.970151  28.867779  34.254827
Ar   30.594776  25.112036   5.494716
Ar   15.526268  -6.451890  16.213019
Co  -26.686957 -23.995498  17.616705
Fe   18.463851  20.219738  34.623235
P   -24.961338 -33.436847 -12.725687
Zn    6.781469   5.634443  43.725940
Nb    0.843026   5.093363  36.751021
Ca    7.838202  14.654132  15.098621
K    15.196140  18.908785  11.639047
Te    1.362054  24.575809  11.882245
Ca    8.874181 -15.160843  -3.922138
Lu  -12.949027 -33.889652 -20.819344
Rb  -23.394308  -5.928653   3.633559
Sb  -17.577753  16.267346 -13.799079
Bi    8.541527  22.442442   1.304541
Cu   25.603104  33.268432  -0.298263
Co  -13.586629 -33.933274 -14.063582
Fe  -12.341954 -18.946219 -26.125265
Mo   -0.787161 -12.250831  22.682799
P    24.926827  -2.539702  13.588956
Ti   11.895944  11.717184  21.565682
W   -16.112184 -33.826866  -0.087252
Nb  -24.446282   8.393257  29.817975
Be   33.183672 -13.443196  -0.591222
Eu   11.673666   2.774710 -42.642867
Ag   -8.701744  38.415106  -0.548994
Pt  -28.901757 -10.572675   0.548235
F   -24.608931   3.821635  30.002466
Sb   -0.867149  -3.235277  -5.147350
V   -28.938805   8.717162  23.260743
Mo   -9.962937 -30.208507 -25.487653
K    -0.063689 -31.939020   3.842191
N   -27.177688 -16.466718  21.462075
As   -3.268117 -27.989801  26.112838
F    -4.217835 -19.168620 -29.826272
Br  -13.693328  -8.723683  23.069757
Cl    2.878492  21.828547   9.042854
Mo   31.041856   9.117727 -25.807516
Xe  -18.408840   3.374291  35.655552
Ne  -30.346203  30.826180   8.439395
Ta    1.944128  -8.455879 -26.656622
Yb   10.503469 -10.412538 -12.337555
Si  -12.791737  32.033153 -28.180900
N   -37.050981 -15.211328   5.316196
At   -8.207138  22.365959 -21.654741
Y    11.841776   8.668894 -16.311758
Ce   -2.177188  23.437122   7.247755
Rh  -22.564440  14.563862  29.812058
Ga   -3.980407  45.210335  -3.441071
Os   20.782672 -28.352193 -20.211582
Cr  -37.431092  23.281686  -0.941891
W   -30.114007 -13.345462  15.923143
Ru    2.666434   8.503787  28.005783
In  -21.082367 -19.853086 -34.748943
Ag   11.236675  16.143313  38.799389
Pm   40.159475   9.284470  12.297332
S   -25.822357   5.268184 -31.943524
Kr  -19.138905   1.956631   1.269759
Ga  -10.425011  28.658629  21.296392
B    11.495644 -10.007910  12.896693
Ta   13.871597  39.533596   0.667035
Sn  -34.805278   2.633144   5.932020
Si   26.658257 -14.213854  17.739697
Xe    5.405074 -34.824949 -28.223908
As  -31.735254  24.943748 -20.203818
La   18.520133   4.349319  11.196771
Os   21.971052 -34.741759  -8.026512
Pr   21.080869  10.261447   6.717833
Sm  -35.019271   5.243294  21.874422
Os  -14.667139  13.902807   6.232433
Kr    0.918280 -25.359377 -19.236991
Rh  -17.959541  13.629487   0.421553
Eu   -3.422384   5.547865 -28.312439
Rh   32.449381   5.120120   4.751733
Ar  -13.135202 -19.674262 -20.813926
Au   19.734198   6.050737 -18.682206
Hf  -16.545611  20.648029 -34.854976
Ni   -3.381922 -23.218616  -8.763576
Kr   10.885002  36.644659 -19.261510
He   32.217899  15.897138  -3.987448
Nb   34.136812 -13.791785  18.017330
Na  -34.846904   0.928884 -22.221041
Hg    0.637867 -25.274595   3.742220
Tl    6.959387 -33.482821   9.846507
In   22.306159   3.862828  27.151988
K    30.338092  26.827065  -9.507173
Er   13.333674  30.253695 -19.798396
Sn    3.206096  13.149676  19.628749
Cu  -32.988812   7.870170   8.835589
Ca   16.490268 -22.936433  20.420923
Sn   -7.782819  27.970107  32.139046
Pt  -38.245508   2.525170  -4.587980
Yb   27.847795 -16.638891  25.276935
F   -16.603530 -16.504774 -28.070013
Zr   11.485716 -27.865422  10.050413
Si   15.908157  -4.659222 -27.670858
Dy   18.890709 -22.443971   3.750030
Kr   16.463034   5.869266  14.579781
Mn    0.770634  12.558120   7.351361
Li  -13.599382   3.043239 -11.340139
Ru   13.375204  21.618804   7.397072
Bi   14.311306 -13.790477 -39.836896
Tl  -10.476777 -13.645012  37.744937
Ge   37.757430   0.163145   6.488702
Pd  -15.319744  35.650958   9.668219
Na   10.186705  -7.434777 -22.814612
Ba  -20.181579   7.481392 -16.621028
Cd   30.191545  -1.048411  18.707034
Er   20.418411  38.345354  13.449457
Os   20.838646   7.162303 -31.947405
Yb   -2.085541 -10.982549 -43.821373
Ta  -24.976829 -16.830290  32.053719
Rb  -25.359252 -12.860076  -9.052846
Lu  -16.390872   2.503478  11.679703
Xe  -11.046784  -0.781368 -22.168656
Ce   13.691445   7.826821 -37.643717
P    26.531115  -4.413768 -22.525911
Ni  -16.698348   4.478512  -8.335857
Hf  -14.219871 -16.226848  29.237034
I   -31.805289 -19.186016  -0.120947
Ar  -19.738621  25.920275  21.708744
Ni   21.256274 -10.218160 -33.538312
Br  -14.768161   8.229058  14.518085
Sm  -20.544607 -22.499554  -6.461267
Sc  -13.802286 -33.979242  -3.975225
Fe  -27.394813   8.520425  18.874487
Be   23.839071  12.377986  15.166232
Pd  -11.905087 -41.833467 -13.060851
Ti  -17.223964  35.706277 -13.393408
Yb  -34.988310   3.946141 -23.704281
Tl   -0.551828 -11.679111 -18.922191
Be  -14.065160   6.161268  -6.496752
Cl   21.261665 -11.958821  36.836619
Ti    0.977915 -30.480388   0.904891
S   -10.484588 -25.178969  19.635938
Ta  -33.575889  -8.783659  22.326878
Ge   32.361390 -16.917715  23.389070
W   -27.334344 -14.579158  -1.789195
Er  -11.529310 -17.315202  -2.392713
Y    25.185188 -12.365445  -4.200817
Cr   -5.839821  26.437257  13.997439
Ne  -12.942310  -1.883824  11.126590
Nb  -21.132129  13.791346 -19.642336
Sm    9.034629  17.886013 -22.574094
Tc  -37.456184  15.578130  20.302975
Ni    0.627740 -31.298254 -25.766248
Cu   -9.256403  35.157481 -27.417862
As   12.703395 -41.773487   1.025341
O    24.017677  27.592539 -20.748310
Ag    3.271357 -25.076088  -2.967658
Ge  -31.098065 -28.017319 -13.745631
Pr   19.036110 -11.519390  27.242587
Pb  -11.517222 -14.229962 -35.017110
Ag   42.366643  10.216493 -12.665809
Sr   -3.980144   0.476461 -34.192764
O    -1.031838  -6.851814 -40.465725
Mn   28.094596 -10.248564  -8.433782
Se   21.590852 -38.450671   3.798987
Yb  -41.094662  -9.455446 -16.981447
Sr   21.771601  -8.577227 -22.749209
Po  -12.092010  17.055042  31.616370
Mg    9.230492  21.942100 -28.422251
Nb   20.864608  21.004449 -30.768890
Ne    1.482341  -6.641158  12.575217
Mo  -37.052843 -26.428767   1.015956
Lu    2.560955 -14.494262  -1.995879
Na   25.369679  12.046890   5.296868
Ag   -1.496410 -43.706240  -0.564450
Be  -35.634353 -18.205111  12.545650
F    25.338117  22.505046  24.643989
Cl   -0.548265  31.722386 -17.548136
Po  -24.454253   4.187547 -37.395576
Mg   10.095943  30.719441 -25.186884
Cs   12.989875 -24.071955  24.744769
Bi  -16.040882   0.197366  42.259861
Ta   12.952233 -12.629967 -39.008753
Sr   21.683304 -12.753005 -23.769150
Ru   15.341311  18.732166  24.044102
Pd  -17.787327  32.270483  13.681547
Ga  -10.183271  12.778142 -20.091661
Mn  -21.582188  26.772104 -27.764230
Si   -7.106567 -26.033326 -25.827955
Dy   -4.033016  23.676520   5.637114
K     4.455550  26.274721  19.401101
Mn  -11.414666  11.743536  10.496532
Pt  -13.743250  26.077735 -20.889418
C    32.275146 -21.981189 -12.099341
Mn   40.551696  12.323887  16.044286
Si  -22.114105 -22.057744 -10.249345
Tb  -32.958846  23.533503  -7.589924
La   31.102630  18.807202 -17.592603
Ge   15.899178 -25.247780 -11.400161
Cr   31.035454  22.882314 -22.634559
Mo   26.208302  33.634110  -3.947618
Si  -34.987671 -20.709404  14.342040
Tc   37.748793 -23.898364  -9.149373
Rh  -28.679601  -5.512042   0.280380
Eu   17.694011  40.802756   2.124557
Br   12.345051   3.058529 -40.433773
Pd  -22.350046 -29.875175   4.145085
At   29.067363  29.017504  -4.624103
Ru   21.991240   7.755925  18.260555
Cu    8.584425  -5.208293  14.869796
Xe  -22.972259 -31.352643   2.883507
Tc    0.917089 -26.406767  14.593114
Pb   16.100914   6.403499  25.604641
Rn    4.421702  -7.801778  42.236127
O   -19.678277  17.161125  37.173499
Yb   34.959608 -11.057741  16.789308
Be   28.364723  26.374223 -21.543101
Pm   42.809742  -1.274998  -1.511869
Ar    8.772950  -0.447314  18.614503
I    -3.032870 -11.823885 -16.384159
Ni    5.959566 -24.485000  35.064677
Tc  -36.684640 -15.738527  -7.125856
Pm  -43.161905  -1.486704 -11.165610
Pd    9.722043 -40.485873 -15.239886
Cr   22.804974  35.991315  14.046382
Mg   10.524581 -19.861559 -11.383480
Na   17.201612 -18.500269 -11.332683
Sn  -33.683165   2.421650 -25.054160
Kr  -31.070217 -24.353232 -19.314380
Os   19.854653 -36.566154  12.551583
Sc  -11.364671 -19.888249 -31.307727
Tl  -33.931680  -7.449261  26.254234
Zr   31.091251  11.667271  26.703330
Rn  -11.585060 -27.483447 -20.105690
F   -13.367022   8.273638  23.021639
Ni   -8.805765  18.956355  40.158310
Te  -11.016536  21.207215  15.060358
Tb   -3.297686  39.408057  18.986108
Ce  -15.110286   2.210016  12.080162
Bi   14.320933  23.131326 -31.084254
F     5.296609  15.691110  12.010830
F    -3.068592  12.166019   8.070339
P    21.472590   0.611462 -20.019882
Xe   28.058000   2.232040   4.842217
Pt  -26.511082   9.774791 -11.694233
Cl  -37.702395 -11.246020  -8.900289
Pm   33.025571   7.402973  21.369494
Au   22.815624 -27.560567  26.184788
Po   -2.436258 -15.843375 -12.140414
Tm    4.979119  -5.796060 -31.001557
C   -13.798200   5.756531 -17.806391
Po   -3.099674  31.376161  26.936019
Sm  -26.484155 -11.255835  -8.620293
Zn  -37.787798  10.483215 -16.587590
Cs   -3.533709 -21.523219  10.661869
Lu   27.850028   4.731004  33.646149
Cl   10.837273  13.025405 -15.631622
Yb  -16.389982 -22.825428  33.448651
Sc    2.624364  -9.302445  25.283728
Lu  -24.118326   3.687551 -10.532263
Gd  -29.072927   5.076401 -32.533271
Mg  -29.857274  26.022173  14.194349
Kr  -29.214964 -14.257768  21.953845
Hg   36.081647 -24.984642  -7.312132
Ba   18.505049 -10.832648   1.121843
Cr    5.614301  -3.713718  29.284624
Mn   20.536237  40.129252  -0.747579
Pd   22.032212  -9.518010 -29.266350
Na   28.349151  21.459477   5.520636
Sn  -38.801678  20.769023  -9.575864
Ca  -24.863564   3.377307 -19.617250
Ge   -6.622530  -9.366551  17.502248
Li   10.631526 -20.645353  32.241578
I   -20.170133  -5.445509  -5.172443
Ne   17.374362  38.213452   9.514577
Kr   16.709119 -15.747001  20.000349
P   -27.294459   7.826576 -23.451416
Ni    9.842637  -2.812053  37.391043
Eu  -18.953812 -12.173238 -11.726980
Pm   -7.352604  17.073948 -29.498176
Sm  -11.322183 -20.102791 -37.796824
Tm  -30.620627 -33.088546  -2.318859
F    -3.242335 -39.836730 -19.366592
Sn  -28.271067  -2.784438  19.192690
Lu   14.117985  19.908095  27.987987
Ru  -16.985505   3.423070  36.019432
Cu   19.981053  36.411352   0.884646
V   -18.699083  -8.975048 -16.200290
Tb   -0.915857 -12.607587  34.751020
Sm  -29.902698   3.245755   4.200853
W     9.097755   5.008450  42.267670
At    0.102530  45.405150   3.209153
Ag  -11.266111   9.206526  31.202534
Hf   21.262251  31.498358 -20.657050
Tl   37.270522  -7.056958  21.935246
Zn   10.113619  16.124156  30.191390
Mn  -16.197434 -16.675852 -20.009067
La   33.506078 -25.012423  -8.651545
La  -15.543442  33.818748  -2.340565
Co   27.591371   5.785369   0.140271
Nb  -11.011798  23.423444  29.353377
Cl    8.727802 -39.010318  -2.903644
Te   23.179905  10.300570  -1.313774
Yb   17.429785   2.293631   5.047332
Co  -24.382357  25.567886 -25.003738
Y     1.916019  16.594014  42.325920
Tc   -4.734824 -19.198017 -11.495338
Te   -9.253203  -1.088796 -13.763930
W    21.474225 -11.168657  23.486790
Mn  -31.741813  -3.778731 -12.729571
Sm   -1.699926  16.370973  26.381168
Ne  -36.726926  17.363507   0.951009
Tl    1.096389  28.805390   5.434266
Ce  -26.547914   1.837008  -4.331594
Cl   17.195348 -32.716586   9.977849
Lu  -15.995761  27.921942  16.156500
Yb  -29.704417  14.824558  18.458199
Eu   23.136671   0.328657 -29.351624
Ir   44.831424   3.970071  -4.279939
Rh  -26.533372  11.388037 -12.050842
Ru   28.087233 -20.596759   7.606473
Ge   18.664250  14.932751 -23.982031
Mn  -18.424128 -25.366633  -0.547367
Eu   -4.232520 -22.129104 -11.440958
Hf   26.108500  10.257843  24.337095
Zn  -29.366721 -26.198020 -12.981430
In   42.432068 -12.709226  -7.887520
Cl   26.822903  28.403065   6.273569
Dy   10.107777  42.254063   1.971679
S     8.874448 -36.731249 -24.523618
Mg  -16.986763   3.655223   6.663076
Cd  -32.306071  -2.005076   3.846869
Sn  -10.206394 -11.724136  -9.812569
Dy   39.347930 -10.971016  -6.448007
Tc  -13.409568  13.258689 -26.643179
Si  -18.037882  -2.183176   0.692662
Pb   -3.071362  34.024345   8.758983
Tb   19.755113  32.935671  20.252731
P     3.254834  15.029456   7.394221
He   11.525835  38.754805 -12.971470
Sc  -12.943614  27.438258  20.772820
Fe   11.652953  20.544903  25.489396
Re   35.558789  13.171523   9.664168
S    16.775027  -6.010163 -35.161821
C     3.160039  37.318677  16.417335
Ho   -8.240564  28.681584 -25.217631
Bi    7.825345  39.874322  10.665949
Rb   10.156512  -2.914210  42.249833
Br   -5.631919 -11.124509  36.522455
He   -5.296862 -10.124150  -2.332064
Ir   -2.423499  10.355244  23.196087
Ag  -31.019507   7.923011   5.149366
Ce    7.606859  36.842458  12.317258
Zr   28.575489   0.364742 -30.309461
Tm   38.688437   3.032406 -17.593551
Xe    0.143280   0.790585 -43.240018
He  -31.110281  15.605769  20.036450
Po   17.040081  28.810729 -29.931712
Si    4.181660  31.630768  14.459706
At   -4.004398 -11.092773 -37.877705
Tc   35.083701  18.176300  -6.270988
Mo   -2.213366  -1.167340  39.717564
As   -4.841002 -27.248464  12.912890
Yb   26.515996 -14.816429 -19.262996
Ta    7.036381  33.643187  22.493302
W   -35.037374 -10.085052 -24.729792
Cr  -38.642623  -0.575015  19.494017
Eu    8.271389   7.297885  24.513763
B   -34.898253 -24.640922 -14.369068
Hf   -3.760053  32.504203  10.823080
O     6.686284 -29.926897 -22.302001
Sb    2.183173 -31.884462  31.659347
K   -12.350921  32.122225   4.866767
Mg  -12.354211  25.413449 -22.346092
Ce   18.279188  20.582686  19.019112
Ba   24.783617 -14.598443  32.581171
Pb   -8.378442 -35.784082  12.424816
Mo   -7.976856 -11.525805  41.908510
Ho   -1.510973 -22.026191  17.986506
Yb   20.289141  25.618655  10.591989
Hg   14.989770   0.315912  17.381376
Lu  -16.081300  26.183419 -32.498269
H   -14.350077  15.610043 -24.931880
K    30.850672 -14.916864   5.458905
Ar  -31.690522  16.108295 -13.140295
Ca   31.498601  -0.209621 -20.109539
Cr   17.795976  -9.643244  -6.087292
B   -20.677818 -18.979254  21.696342
Ho   17.838619 -31.553107  16.242722
As   -3.120854  39.648093 -19.808481
Yb  -30.399881  -5.722687 -10.306299
Tl   23.863292 -28.334868   2.545778
S    12.402199  14.908090  32.064953
Rn   21.409832 -19.547377  33.107521
Ho  -28.589125   9.238728  20.172950
La   21.660023   9.482781  26.897709
La   -8.400170  29.689756  26.790413
Ir   -5.618172 -22.653968 -33.800803
Xe   -8.784917 -42.628069   0.113086
Sb    1.102498   8.811781  30.351033
Zr  -31.846641  -7.791740  -1.480768
Eu   13.554205 -39.971225  11.147390
Lu  -38.193932  -3.066232 -20.724811
Nb   27.975427  10.722599 -20.021354
Dy    9.630172  29.914234   9.038948
Ca    4.123019  25.931828 -22.872674
Fe  -38.898639   5.197168   9.718148
As   11.750421 -12.604103  20.561413
At   34.630805   1.948581  19.334153
Pb    7.769888 -43.776868  10.014604
Sm   13.821091 -41.460225  -5.881242
Ti  -17.671220   7.778658  26.577787
Dy   17.122210 -15.907832 -25.972486
Yb  -21.835630  31.983512  -7.607548
W    11.846758  24.632616  20.602090
Mo  -11.276513 -10.568833 -22.678502
Gd  -35.621582 -18.403223 -20.896057
Tb   30.502661  13.404900 -24.901401
Po  -29.946557   0.852537  -7.878802
S     3.053471  33.758193 -29.411544
Rb   -2.690731  10.616487 -41.594366
Ti   32.044557  -5.749685 -16.158933
Sb   14.807614 -24.457759  30.179852
Po   19.852716  35.334584  -1.431128
Pb  -40.156910  -0.596578  11.491160
Sb  -22.602051 -17.139365   5.485585
Br   28.148433  28.496734   0.597250
Ge  -23.907035  17.419594 -19.673330
Cs   15.369755  15.301520 -33.370886
Rh  -19.248614 -17.041359 -26.050567
Ru  -24.416187  23.769303 -11.621211
Zr   -5.156733 -35.628647   7.967048
As  -19.150284 -17.622443  21.020550
V    -9.889570 -15.993727 -29.257886
Ta  -12.206354 -25.866343 -17.993703
Ne   -2.613758 -28.346693 -10.996399
Ho   11.693692 -39.474406   3.085023
P   -33.333218 -12.144505  15.373956
Si   11.623274   7.799359 -31.616985
Ba    1.664085   6.574813  40.063276
In   39.670565   8.104257  10.882959
Gd   -8.653844 -13.670966  16.342334
Lu   10.443668   4.426949  16.736225
Au   -5.510205 -12.337303 -24.637589
C    22.436584 -29.964518 -14.470160
Ge   -4.372136   3.021562 -32.202032
O     2.889794  32.254938 -27.064015
Cs   -1.621372 -14.174183  39.070820
At    2.212055  15.365949  19.216695
As  -10.822174  10.851124  -7.372120
Rn   16.561606  22.586059  21.617792
Sc  -12.419213  30.822778  17.653475
Bi  -16.512948  -9.450903 -28.072470
N   -11.459242  -8.900775   5.904924
Ti  -24.846058   9.217387 -28.142762
Cs   -7.620410 -17.943817 -17.650865
Ho   23.134215  30.619428  12.627211
Bi    9.438033  26.767466  11.878783
Te  -22.966606  22.473328  31.510752
In   -2.263991  27.722752 -26.883696
Bi  -20.358533 -22.617939  24.492694
Zr  -22.166476  38.940254  -6.836221
Rn   -3.095623  -7.649531  15.831341
Be   26.556641  23.660573  -5.746003
Sm  -15.270438 -13.066360 -29.908817
O   -23.269590   5.957494  -0.692213
Sr    9.705825 -29.317348  18.437724
He  -32.451426  16.103273 -12.322404
Dy   31.344106  17.140889  -5.679430
Zn   -5.684135 -19.514531 -38.819079
S    30.375137  31.845950  -3.276662
Pm  -12.498810  -3.065499  18.297859
At    6.723035 -25.199759  10.835468
Pm   24.752406  34.062453  -3.889854
Pb  -14.131045   9.589792  30.059495
Pr   -6.198886 -16.770385  -3.326079
Hg   -2.806277  32.267592  -0.577472
Gd   12.484295  15.042113 -26.152001
Eu  -29.928896   3.985584  24.188163
Zr   20.448880   1.205640  37.784023
He   -0.955126  11.066994   3.636434
F    -6.520014 -23.816933  28.781099
Cu   15.117972   7.002274 -15.488061
K    37.382280 -20.315075  -2.461870
Ba  -23.828206  -9.004622  -8.262012
Co   -2.338151 -15.262717   9.848705
Dy   16.062501 -38.215034   2.079272
Re   39.147854   5.184255  12.362031
Sc  -26.038443   2.663829 -19.244194
Sb   27.667077   1.878045 -16.926537
Hf  -27.926910  18.743402  23.589426
Kr   18.747656 -28.023417 -28.825617
Sb   -4.318914   6.165632  20.917467
Nd  -23.948010   8.500578 -30.953400
O   -31.321503  16.282462   1.060836
C    19.304227  29.560448  17.093905
Os   18.803597  17.593889 -37.376285
Cd   -3.433964 -42.625125   1.636909
Na   11.607853 -17.797067 -35.490552
N   -20.828905 -27.943935  20.377235
F   -13.666852  18.242037  15.732959
Ge   24.093017  25.461750  -1.569900
S   -25.679869 -12.862279  -4.120114
Cr  -16.747122  19.906249  19.983040
S    -2.803288  20.196011  36.200264
C     2.408867  14.674206  39.369978
Tb   27.122206 -25.345582  -5.813996
Ho   -2.387583 -24.408972 -17.306902
Cd  -16.141050  -5.692667  -0.891424
Tl   -4.912752  -1.557907  14.711087
Co   35.112657 -16.307049  11.029681
C    20.424881   5.729582 -19.437904
Tb  -16.161681   9.027192  14.068012
I    37.364826   0.574191  16.600477
Y   -21.092028  -7.802172 -26.284521
Xe   22.434552  -2.578930  18.475148
Pd   38.807869  -0.237386  -6.209407
Lu   16.548583 -35.000308   7.045034
Rn    8.938690  39.958384  16.947751
Ga  -11.802848 -17.162250 -14.307258
Ho   -5.633979  14.992369   6.159540
Se   15.502495  -9.793298  32.906002
Rh   32.846258  23.310359 -17.419820
Sb    0.905630 -34.172983  18.160490
Yb   25.249267 -22.117574  13.373600
Sm   13.394702 -22.014018 -27.081028
Be  -23.596102  29.168784   5.319192
W    16.857649  29.262739 -18.999262
Dy    0.852346   1.186956 -25.917162
Cl   -8.858876  14.201597 -13.401467
H     8.528608 -15.295666 -32.632253
Po  -28.962212  24.201761   9.948651
Ho  -19.427848  18.431176 -24.006857
Cs   -6.758844 -39.438933  -2.679282
Re   -8.333995  18.360182 -23.988878
I    -7.412638  34.021577   0.051019
Ce   28.443183 -17.856675  -9.968890
Mg  -11.591051  21.242534 -32.491706
Na   20.728847  27.988681  -9.422211
La   40.300897   7.623047  -6.822606
Tm   41.680224 -11.978097  10.438637
Cr  -12.657641  21.130041  25.977613
B    26.235904 -11.607143   8.778340
Tl  -20.609257  -6.071835  24.575510
Au   -9.103964  -9.290555 -16.832455
Hg   28.359438   3.317063 -34.681709
Nd   -1.645054  23.064592  38.084230
At   16.389446  36.013075  17.892415
In  -13.014063 -33.857702 -27.353608
Au    3.126848  13.023096  10.263488
Bi    3.697860  30.062676  20.043628
Te  -40.460385  -1.367064  -1.484113
V     8.848356  20.356137 -14.118689
Rh   20.874836 -30.301486  10.603000
Co   -2.755167  -5.460335 -20.916699
Cr   -4.205436   9.140937 -20.446263
Al  -15.214553   9.234344  16.233075
Tb   33.205371 -22.134601  13.337392
Be  -35.742362   1.455450  -6.356489
Be   11.184471 -34.156657 -13.820874
Pb  -23.217511  10.608412  -6.058869
N   -26.285322  -5.972361 -25.440549
Sc   -7.719586  27.978462  10.861728
Cs    0.640977   6.324593  23.881502
Pm   -9.747722   0.871097 -10.302437
Ce  -14.412806  32.543070   5.769999
Te   26.674219  32.463912  14.545868
Pd    0.798919  -7.962086 -24.486434
Te  -35.722863  12.692327 -18.160400
Ir  -19.746452  -3.472425  33.600201
Ba   -9.692161 -14.369452 -22.165478
Tl   24.364106  34.108003  16.939807
Rn   42.193376  -4.757693   1.805503
Cs   -8.431075  13.619683 -32.142422
B    -6.153574   2.416984 -24.701678
Mo   -4.080419  15.691599 -13.630351
Au    1.083444  -3.830995 -42.914875
Ba   -0.265092  -5.680284 -39.665532
Os  -14.404760  22.583613 -19.723299
Au   25.010142  19.391509  -3.657837
Si   -3.908175  17.890145   6.231706
Kr  -31.653133 -28.197084   1.562930
Zr  -28.549161 -20.619783   8.387479
Fe   10.691107  19.296119  13.524512
Cl  -32.207136   2.932010   5.595200
Ag  -26.137404   9.987512 -31.448946
Ni  -13.216770   2.992045 -30.327067
Hf    0.561673 -22.846988   1.378497
Tb   -1.900709  11.743193  -0.344534
Nb  -20.130556 -20.833492 -12.251971
Bi   31.902751 -13.899848  10.867535
Tm    7.309872  34.485091   0.890143
Ga   -4.407921  27.893861   5.171381
Tc  -12.555789  20.636909 -29.455338
Nd    0.212308 -31.803769  -7.890300
Sn    8.982686  24.227406  -3.472824
Ta    6.011311   1.075323 -19.748635
Sc   27.872819  -6.428542   1.238894
Sb    9.433802   8.243555 -28.276038
Zn   -5.767322  14.265926  26.305012
Pt   -2.462308  16.960454   1.281326
Yb  -16.091276  -6.367166 -17.530427
La   -6.244127 -25.250594 -25.223853
Ga  -22.834752 -20.628706  12.472733
Sm   26.808618 -13.328931  28.526035
Hf  -19.286238  18.521845   2.053199
Tl   23.114477 -36.558411 -11.763757
At   39.532871  18.561738  11.466377
F   -28.527269 -25.487207  -6.215143
Se  -11.775589 -19.552240  17.402286
N     3.306168  17.078569 -29.064410
Nd   19.615446 -28.750966   0.318287
Mg   29.115776  -1.886840 -16.164590
Na   12.305836 -37.264871  -2.561356
Ge  -14.621623 -12.038357 -21.470750
La   19.489158  12.718267  12.264421
C   -13.428685  20.602702  -6.517356
He  -15.097888  -7.846820  21.941559
Mn    7.911181   1.633582   2.243087
Tl  -11.047226 -42.554911   9.815329
Tm  -15.884524  -4.904912 -22.756804
Tc   26.559629  -2.608016  35.806563
Fe  -11.689493  21.584898 -15.646370
Nd  -18.220792  20.984821 -25.632135
Na  -15.099090  10.661079  27.336179
Ge   -1.581385  -4.966925 -15.651956
Ru    8.274690  28.942672  27.385779
Ga    4.305906 -31.793234  29.401868
Pt   -5.912095  22.066049  15.161019
C   -21.547281   6.703364   0.543331
Zr   -6.726833  37.940182  19.934201
Al   -8.260538 -12.695819 -33.188516
Ti   15.955075  29.064885  24.293247
Gd   -9.442363  28.025309 -25.518466
Ca    4.963619  -2.782425  -1.995282
Pd   18.639578  -6.495533 -26.077175
O    15.083902  12.389490 -37.392135
Po   30.040427  -3.560185  -2.300346
Be    8.061228  -5.967843  12.685661
Sm   23.378203 -17.307565   2.077209
Pr  -35.438523 -19.048318  -1.621896
Ir    3.385242  23.205773 -32.453471
Si  -30.178479 -19.933670 -13.265372
F    19.624469 -34.666380 -16.418323
Sn   -7.903653  32.877153 -19.491804
La   14.502534   7.763519  22.714553
Sm    1.493431  12.336543  27.549186
Ho   39.133647  10.615071 -15.737708
Ge  -23.116829  30.760816  23.679051
Cs   -7.516911  43.235689   9.989565
Pm  -14.942910  14.568904   7.715342
Ar   -0.115119  22.037500 -37.606812
Ru    7.495452 -22.136838   1.843012
C    27.485443   2.000820 -28.844285
Ho  -19.446191 -39.851085   2.121598
Cr    4.878192  -1.356419  16.879567
Au   40.070292 -20.143132  -0.077527
Hf   -7.120935   0.413348 -41.010565
Ge    0.392117 -12.874589 -20.125544
Al   34.680853  18.929148  20.241834
Gd  -15.375504 -35.008277 -16.938060
Zr   -9.153877  30.532259 -11.928745
Lu  -20.634208  23.682625  10.403527
Si   -0.730297 -12.537398 -26.055572
He   36.781487   5.200339  18.633672
K    -1.463013   2.726320 -27.203702
Au    6.703695  -6.916147 -32.755027
Zn   31.467203 -31.228657   5.123752
Si    2.304192 -41.583181   6.554922
Mg    7.486339   1.727374 -25.091909
Si   23.650223 -21.891399  19.997101
Pr   38.519355  15.182756  13.568235
Mg  -14.616793  27.050115 -25.594934
Eu   28.907434  23.280761  20.847092
Mn   26.708210 -21.371074 -12.906695
Nb   -7.175010  -6.671441 -25.273016
Cl   18.058906  -3.080374 -23.924178
Os  -19.635455  35.148655  -1.567651
V   -42.749713   2.767633  -9.779089
Ag   14.751305  25.609322 -33.186585
Ga    9.251813 -21.916648 -25.645044
Hf   19.787382  32.873310 -10.498462
S     4.524334 -27.806491 -31.262891
Ti  -28.262406  -3.644613  -2.706883
Eu    9.687763   9.089360  38.786997
I    -4.198601  23.088427  -3.813766
Fe    6.244853  33.202312  27.738141
Mg   29.685559  32.830132   4.875198
Ir   -6.202097  -4.841916 -23.305253
F   -22.513047 -21.558827  -3.508351
Cd   31.311444  15.939998  17.692756
Li   10.072559   3.155535 -16.823651
Se   -7.185659   4.877010 -28.727452
Gd  -22.062415   4.751825 -28.748641
Si   10.773395  33.324737  -0.612848
Dy    2.170826 -21.768828   4.552952
Co  -23.209282  24.547808   5.514072
Xe   28.452584  18.916971 -27.256953
Xe   30.450991   0.823188  32.167021
Si   40.611377 -12.899560 -16.035216
Nb   40.196484  -6.470099  18.560024
Kr  -31.065652 -21.086269  17.194950
Zn   10.333327 -10.889892 -15.157515
Ba   -0.108805 -35.247044 -16.084109
He   28.137659  11.826350  30.610161
Cd   15.623776  14.159385 -11.928135
Pb  -15.460293  17.432659   3.468101
Ga  -36.406977   9.552360 -16.310827
Li  -20.607364  38.560530   9.863352
S    -7.588491   5.784567 -17.647368
Ge   21.847398  -8.210352   6.047794
Ca   -7.094034  -8.145687  12.627656
He    8.943323 -24.474856 -31.924994
He    6.600790  22.744121   7.201020
V   -12.031803 -16.659378  18.743768
Li   -8.922925 -24.391242  16.816237
Sc  -12.290490  -0.550574 -42.147515
Pr   -3.383295   7.402949  -8.337082
Eu  -42.521580  -8.071474  -1.681420
Y    27.191480 -30.674826  15.927563
Te   -5.931449  26.125727  20.987153
Rh   10.298193  30.211260  -9.895918
Nd  -20.013812 -33.430957  10.893550
B    28.190968   2.653037   1.918102
Pd    1.683642  32.269092  -9.744009
Ce  -12.763221 -11.987999 -41.560113
Gd   -8.762120 -41.179952   6.709900
Ge  -11.021451  -4.057139  -9.777062
Fe   28.849405  17.446130 -29.134708
S    41.275642  -5.955067 -17.756851
V    13.791228 -14.787702 -35.744956
Cd   13.798994  29.137670 -18.412097
Sn  -10.865952  37.236399  19.028046
Ti  -12.427437  29.797824 -21.616852
Te   10.881490 -19.432047   9.322352
Zr   -1.613167 -31.835392  19.115673
Pm   -2.347654  -9.087119  11.920815
P    11.075461   1.510621  39.935616
Ne   -4.895480  -6.208235   6.431446
Pd   21.786715   9.861120 -26.423644
Ne   -4.541128  20.644624   6.268203
Y    20.426616  -6.429441  10.650733
Po  -14.708765 -19.881124  10.551510
Tc   18.549770  16.518792 -26.819197
Yb   24.148565  -9.851644 -15.705713
Ni   21.210676 -13.303587 -17.378503
Tc    3.881396  -2.837247 -23.122825
Pm  -41.313888   5.221115 -16.794748
Sn  -14.037013  13.651775 -12.014574
He    8.276918   7.831902 -16.293013
Ta   12.878475   1.281432 -24.423419
Te  -22.749333 -19.181743  -0.535311
Cu   19.163066  -1.346762  40.392978
Bi   19.965824 -22.819329   0.304100
Re  -16.079643  11.895173  30.984027
Fe   14.691954  16.777731   7.963297
Au   -8.609896  27.220197  25.096414
Hg    9.171177 -16.912924 -33.520775
Kr    9.803797 -20.029373  29.980683
Ca   28.921423  10.911150  26.958844
Ti   19.586661 -12.296982  -0.902760
Mn   39.015717 -15.339861  14.387431
Lu  -21.731469  19.188149   9.337002
In   28.300196 -32.212742   9.996741
Pm   -9.503858   0.387874 -28.973873
Rb    7.813852 -27.151408  -3.502835
Gd   32.657293   3.150782  13.091749
S    11.993574  34.223803  12.987744
Si  -16.249886   0.986499  -0.077130
La   -5.049826 -15.353284  37.704781
Kr   35.802703  -1.959199  -2.191469
H    40.751625   1.664198 -19.183428
Pt  -12.030534 -22.325862  11.844374
O     1.630566   9.801445 -35.211153
Yb   13.611178  -3.700975 -40.778638
Pb  -17.753369  18.049081   4.112987
La    9.793616  22.061738  25.650205
Li    8.787064 -38.439336 -18.962820
Ag  -24.691515 -16.031697 -27.244017
Ge  -17.121497 -26.197743  29.102596
La   18.841454  22.637441  11.115017
Rh  -20.720259   2.318046  -2.837089
Ag  -29.713795 -15.254700 -13.991196
Cl   23.653076   2.044864  32.936941
Cr   31.271434 -19.685663   6.529473
Pm    5.278972  36.231209  -9.792215
Kr  -14.177048  10.777161   7.614601
Os   -0.622644 -11.714220 -35.580823
Te  -12.026953  -9.588894  40.862579
Sb   33.318792  26.612006 -12.520581
Po  -17.661368  24.185167  23.112131
Ca   17.994921 -14.346450  31.852829
Xe  -10.769379 -14.322925 -38.879579
Rn    7.736287   3.909507 -16.062229
V   -36.199730 -13.316397  23.555075
Ru    6.488156  22.392491   8.127165
Se   -3.175815  -0.179226  42.176169
Rb  -10.521424  -5.756404   5.975950
C    -3.326421   4.353066 -11.062053
Ir   -2.776019  16.967656 -35.986940
Ru  -20.993503 -16.857935 -12.344850
Nd   22.210925  21.300576 -20.460500
N    20.373792  14.936263  27.795439
Xe    7.628614 -30.297504  -2.666548
Ag   25.498938   3.806864  -4.974145
Kr   22.629210  -3.763009  27.312420
Ir   11.799405  27.309766  15.007916
Te   -9.407654 -33.068954   4.474567
Er   12.273178  14.221834  10.293202
P    27.228574  -0.097834 -23.495164
Hf   -8.969257   3.853960 -17.393627
Tm  -32.182379 -17.266737 -16.275454
H    21.170305 -37.054231  -2.347179
Pd   14.202284  23.887219  -5.610159
Ne    7.246854  -8.559516 -31.915986
Rh   -0.266310  15.233044 -27.070951
Eu    2.554704 -10.800112  -3.733657
Ho   13.046776   0.581397 -36.521589
Ir   12.816244 -36.058785  10.038767
Lu  -17.009538  35.671212   9.105758
Re   -5.355659 -34.548423  29.053111
Sm    1.517439 -15.964857  30.848379
Sm    5.630027 -11.520551   0.913186
Zr  -29.004230   2.967689 -14.582880
Cr    5.989471  32.527938   4.231249
Cd   -2.039419 -33.365592   8.061209
Al   -3.012485  10.335154  22.405585
F   -21.657699  -7.294936 -18.401007
Y   -11.395521  17.377288  39.114488
Lu   -5.161376 -30.193993   7.875084
Nd   -0.881825 -30.518490 -29.753796
Os    2.872349  33.666310  28.368952
Er  -14.676117 -32.561933 -14.767364
Ne   23.533357  -9.344650  11.956180
F   -30.518503   3.339008   1.813696
Se    7.718321 -18.805000   4.444738
Ca   -6.591621 -20.160790 -38.011554
Ir   33.646880   0.379935  28.782586
C    39.813291 -17.080165   8.919462
Tl   -2.582962  18.588094  15.253759
Mg   16.618344   8.472996  -4.687242
C   -16.131479  16.881870  20.693495
C   -24.374823  -8.677253   6.793839
C     4.464834 -15.181679 -18.742195
V   -27.383161 -26.013401 -20.235663
Hf   -5.433562  30.398088  -3.568587
Li   22.460349  10.875125 -25.059216
Al   -5.347574  12.157770 -32.441156
Ne    4.755831  30.487468  31.353062
Mn   20.760805 -20.092895  -1.432117
H    30.997786  19.900921   5.833170
Ga   15.822437  27.810960   7.718442
Sc  -28.658805 -16.442437 -22.641531
Sc  -29.857810   9.689626  13.450571
I   -35.496937  -0.817017  17.611115
Y     6.339185 -17.989872  -1.100240
Fe    8.795048   9.254971   9.302551
Gd  -25.846416  33.751966   1.965618
Kr   -0.007763  10.978442  14.582761
O    -6.220555 -15.247588   8.052455
Pt  -25.203172   6.396409 -29.490725
Nb   32.790057  10.564256  22.275125
Si   31.247158 -12.352425  -9.932365
Tm  -15.558460  36.422792 -22.148036
Cl   -2.433594   4.605532  33.390554
W   -19.619199 -31.765598  -5.499506
O    10.012809  27.434119   9.762146
S    -5.716160 -34.277093  26.459433
Ga   -8.313350 -10.917059 -21.936962
Te  -10.545180  36.524385   0.657553
Kr   23.264070  19.225156 -21.523908
Ta   12.152412 -22.888721  10.664905
Xe   20.303802 -11.220961  15.744344
H    26.588115 -17.734913  24.982613
Tm   -9.621275  -0.045363  40.625579
Ti  -22.093929  23.868686  30.889422
Sr  -18.875652 -35.321198   7.707217
Mg    9.797873 -27.909467  16.565308
Rb    6.349906  34.325566  15.455396
Sb   25.022186  -1.411050  29.439809
Ta   -6.055106  12.805469 -35.992769
Ag   26.221738 -17.041050 -21.726939
Cu  -23.172883 -13.997932 -22.715615
Br   -6.644642 -28.549376 -20.871167
Be  -22.838798  10.406477 -20.942834
Au  -26.190803 -10.497734 -30.859378
Co   10.650876 -20.125050  -5.409440
Ir   14.303188  29.113458 -11.313754
Mg   -3.213077 -25.638836 -34.442243
Ni  -32.426902  26.777353  -8.825962
As   -3.756101 -12.083313 -37.364219
Pb   -6.811368 -22.127793  22.847732
Sc  -35.972869  18.343647  13.509400
Na   17.772320   1.789546  -4.899225
Ag   19.866875  20.642926  -4.970048
H     8.553429   0.842227  17.327316
Pd   13.239946  -0.100412  24.478293
K     6.232144 -13.115773   6.873107
Na  -37.622131 -16.350195  -3.758460
Tc   25.080399  -7.057699  18.584800
N    -6.142902  30.743570 -11.728980
Cs  -32.008671 -26.881938  -8.297658
Eu  -16.464969  21.910775  16.287762
Mo   -5.961552 -11.085592 -18.662954
Pd  -15.530243 -16.005248  19.503480
Ba   24.028473  33.829722  -1.615413
Zn   32.283081   3.722986 -18.636635
In  -25.102826 -15.935105 -16.410893
Nd   10.142706  17.365450  -0.834194
Bi  -11.370957  -1.390366  -2.359041
F   -23.387298  22.088148 -24.363682
H   -12.879845   6.395284 -19.711426
Ne    2.216253 -34.175590 -27.472450
Fe   41.331899   0.676159   5.680675
N   -43.747719  -8.170378  -5.521932
Se  -28.012908   7.084103  -3.064888
Au   22.255122  32.315483  16.274422
Ta  -14.635468 -17.820141  -4.017710
Ba    4.221726  -4.302316 -11.292225
Eu  -14.509528 -22.948029  12.913915
Sr   -8.982702 -15.296545  30.177519
I   -15.373968 -16.118826  27.732218
Na  -36.149827  14.358715   2.084072
I   -15.569346  -1.596806  35.250063
P    14.426821 -30.280696  17.467578
K     0.209826  40.255900   6.485513
He   33.747725  29.222913  -1.633313
C   -33.209798  -9.198863 -22.544298
Nd   -0.489913 -25.955377  17.531919
Lu    3.922667  -9.542123  13.114956
Rh    0.465209 -27.679888  16.321326
Ne   -6.825758 -22.302699  21.122096
Zr  -28.326007  20.231506 -18.460402
Si  -20.477708 -10.402000 -14.479916
Nb  -12.076734  12.913011  10.239982
Sc   14.366419   8.460952  16.358296
Pd   31.793039 -12.763340   2.982466
Sb   33.008514 -30.877356  -5.001612
F   -24.537719  -2.599851  15.431249
Yb  -15.594798 -17.230889  -7.743954
Sc   12.013700  26.829408   3.727823
Ta   31.266149 -10.361162  22.490512
Nd   12.005031 -32.742276 -26.749941
Os    8.606778  -4.212930   1.328962
Sm    9.794573 -20.833975 -39.119359
Sb   18.702343  14.779138  -9.782873
Co   -6.713189 -20.949050  31.427287
K   -20.520165  31.576806  13.762374
Cr   13.307075 -13.130299   6.924311
Ir   16.031959 -37.506587   5.105077
F    15.338438  -5.446670   2.065279
Te   24.711686 -29.962690  12.806578
Cr   44.271167   2.964611  -0.948844
Re   -5.637776   4.373290 -28.827823
At   18.961128  22.454794   9.210684
Sm   32.712738  10.861101  21.237003
N   -25.536961 -19.244307 -29.703020
Xe  -12.976618  18.606659 -38.140387
Pr   27.146015  -9.760217 -28.633723
Li  -17.414944  -3.683197  38.594974
Yb    0.364632 -41.239508 -12.333430
Al  -38.574701 -16.452305   9.648007
Os  -29.886867   6.894528  32.273760
Mg  -16.115267 -21.055315   7.217691
Be   21.047504  16.621298  34.530333
Pd  -21.807161  -0.290158 -25.136414
S     2.976754  23.031221 -22.203882
Tm    5.828499  30.833782 -12.195229
Co  -17.227056   0.438180 -39.926714
Ca   14.914606  40.371621  -3.664517
Eu   11.227175  19.657301 -35.687665
Zr  -10.730484  37.522684  10.303181
H    23.699146 -24.756127   4.624808
Au  -19.835597 -20.593227  -2.132547
Ar   11.236182  14.124737  30.210892
Te   27.849249  27.862991  13.538634
Si   22.324546 -15.875545 -11.784616
Yb  -37.178910 -13.432311 -20.025667
B   -14.661657 -36.770522  14.101746
H   -21.838203  16.160605 -26.175367
Eu    0.453632   4.783285 -29.112569
Sm    5.039755  -4.893153  30.278725
Eu   15.717408  36.954357   7.611521
Tc  -30.318888 -22.903692  -2.204962
Dy  -12.934441  33.104400   8.950665
Cl   29.881155  22.528988 -18.076118
Pt  -16.413612   5.671376  21.116503
Ir    3.579933 -29.658563  -9.014772
Li  -10.134443   8.252148 -38.300792
Hf   -2.706314   9.646702   4.803774
Ho  -16.083976  34.900806 -20.710110
I    -9.527637  10.476351  30.105396
As  -26.212868  10.963338  -5.947742
Ba  -34.224207  25.168889 -12.450495
Sr   24.209633 -15.760673  -8.920041
Bi  -17.666020 -17.959357 -37.360378
O   -24.013905  36.538052   1.085419
Ag  -15.676436  30.407490 -25.242217
At   -4.549762 -10.884340 -12.779052
Te  -14.364487  14.591406  24.018471
Zr   23.393739  29.899739  -3.032998
Hg   -2.800109   3.100987   6.257972
Gd   19.457731  13.503279  36.019629
Ta   21.373094 -33.362817 -11.369800
Eu   31.903272 -17.804624  16.211418
Na    8.225935 -23.344118 -12.417212
Ti   -1.100361 -14.483743  -1.658867
Se  -25.330515  -4.062869  -1.126404
O   -28.413485  33.778517   8.801343
Kr   24.690088  30.285871   9.201399
Pb  -14.659924 -19.814705 -14.472055
Pt  -13.040872  36.204086 -11.492577
Ho   39.571153  -7.599578  -3.061790
Zn   12.504007  36.156814  14.214900
Mn   -5.654072  11.764548 -22.840726
Rb  -20.194518  -7.570385 -20.399367
Rn  -34.253556  -3.213492 -18.234883
Si  -24.598091 -10.238460  32.026150
Fe  -32.142126   1.362416  -0.746899
H   -16.017132 -11.832494   2.020711
Ho   26.962256  -5.354571 -13.179704
Sr  -11.373953  15.406245  16.474759
K    -6.606323  -9.905130   4.048749
Lu   35.176519  11.327538   2.156967
S    12.612467  -1.604676  43.043881
K   -33.697092   5.619429 -16.901580
Mo   15.168436 -12.911268   3.655650
H   -23.298730   7.702309 -10.341936
Ru   10.363043 -40.832365  13.182338
B    -5.314759  -4.059196  13.827879
H   -26.593121 -26.250065  -1.191226
Ne  -43.626490  -7.612993   4.048061
C   -17.180099   6.075928  -9.092329
Al    7.815334  41.785626  -6.086920
He    1.374260   3.592977 -14.428009
Y   -27.647099  -3.342041 -12.684282
Pm   15.119089  31.229888 -18.685547
Au  -25.727337  -5.330070  32.557736
At  -24.310570  -8.617488 -10.481070
Cu  -14.843628 -19.200211  -2.953821
Ar    7.740903 -11.666815  -3.234686
Sc   -7.750819 -18.118374 -15.039749
Ge  -37.533680   5.507257  16.484159
Zn  -28.842492   7.840594  -6.210160
Pt   -3.030660  -3.869819 -12.583778
Zn   42.038669  -8.223694  13.454036
Cr  -20.265997  27.115620  18.371407
Cs  -13.025441  -2.593901  -0.525933
Li   34.141321 -28.389832  -8.095120
Po   -5.519917  -1.758235  16.855115
Kr   28.750541 -22.845388  -9.552897
Yb   -7.323489  -9.797681 -10.221022
F    17.422903 -11.332546 -37.722460
O    11.454777 -29.945973  21.217157
Nb  -37.238422  -6.775378 -24.138241
Cs   36.216017  -3.304577 -27.302178
Pd   13.948712 -17.017514  35.270021
Gd    1.198624  17.393751  23.799710
K   -37.935129  -7.114865   7.766014
Ho   10.221990 -18.353234  28.853231
Re  -17.386726  36.765442   1.574778
S   -22.809770  31.967783 -11.021290
He   -4.917492 -20.565162  39.744515
Ne   15.211384   4.882377  20.941597
H    -7.063242  16.233090   8.227529
Fe  -31.723915  14.267790 -25.599460
Ti   14.935147 -20.712047   0.351183
Ba   40.382661 -14.430967  -2.842316
Tm  -35.878580  27.064067  -2.072055
Sn    2.492878   8.728847 -37.729584
Ca   39.078191   5.269222  22.191720
Dy   39.279486   4.088595  11.207609
Pt   -5.261508 -23.514886  30.767479
Pd  -28.878867  -0.740936   6.891293
Cu   29.736720 -29.195542  -0.701501
Pt   14.461214 -20.080293  24.582024
O   -25.872152  -8.076014  -8.852464
Zn   30.600041 -11.958388  25.462614
Tb  -21.852111 -11.389043  -3.945927
Os   -6.873013  -4.622034  29.600600
Cd   -8.763308  30.221207  11.204848
Ar  -12.162050 -36.615749  -0.626814
Rb  -34.691826 -11.292999  21.105057
Pd  -12.237739  -4.192730   5.216857
Sr   27.778333  32.653054  15.310385
As  -17.742539  21.743886  -4.067319
Tm   12.290977 -18.780965 -12.700149
Ni  -23.491278  15.442952   7.571247
La   -1.823132 -10.860604  -1.086280
Tb   15.713681 -28.352251 -16.157223
P   -24.374986 -12.203739  25.238985
Fe   -3.025634 -26.020666   9.382276
V    19.566286  19.064415   1.044798
Tc    0.510831  11.907336 -29.956744
S    -7.874769 -18.831394  23.837090
Ar  -38.114807 -17.600505   8.987833
I    12.292057 -23.254553  -1.112696
Xe  -23.026988  22.056037  -5.724690
Ba    8.974007   0.602396   3.440922
Yb   -0.024597 -23.696478   6.425085
Au   28.587794 -28.039129  -4.984754
Eu    4.133361 -19.354688 -16.623372
S   -10.063277  -0.163120  28.511395
O    -4.280158 -18.430718  10.056578
Co   -8.168481   5.498492   6.783990
Se   -4.780343  31.490715 -20.924087
Gd  -32.574291 -15.573112 -10.346003
Sm   -6.395105   6.159249   9.419929
Eu   -6.400095 -15.057245  11.822909
Mg   14.506595  -4.293376  10.397381
Be   16.653339   4.285024  10.759070
Hg   41.169734 -16.362586  -8.261440
Cr  -21.208401 -25.092992   6.116501
Tl    2.452962 -37.505028  -5.281348
Gd   20.174279  -9.602394 -21.115434
Pt   -7.779394  -9.714364  21.670478
Mo   -0.695619   4.019768  13.123686
Tb  -35.177040  16.890062  -0.105983
Er  -26.436003  36.206197  -1.232239
Tb   24.746749 -11.510325  30.168627
Mn   -1.534321  39.696606 -22.450783
Br   23.067612  19.172593 -12.143337
B    14.501897  19.520443   7.598270
Tl  -11.598353   3.757449  33.637651
As  -26.054160 -31.052739  -8.512362
Ag   43.627647  -7.798783  -5.621914
Hf  -42.143726 -11.045315  12.953292
Tm    9.909383  -9.971615 -26.560175
C    24.266271  -7.535004  10.430184
As   18.400191  25.728958   7.595244
Hg    6.067573  17.964802 -38.223392
Ni   -3.076054 -37.860158 -18.920897
I   -11.827679 -39.098231 -12.616834
At    4.705525   9.826263 -44.218675
At   -6.183958  30.762274  13.723683
Ga   20.543058  14.113846 -26.356050
O    23.527764   1.704222  -3.721166
Fe    9.725348 -40.119116  -5.528371
Zn   17.957124 -17.970538  37.040011
Ba   27.877861  -3.835063 -13.614951
I    17.367504  19.157120 -17.195368
V    28.832427  30.011124  14.662848
Ti  -24.966791  28.084869  -1.869919
Bi  -27.569634  17.450047  26.663895
Na   -8.577239 -34.384351  18.017628
Tm    4.525442 -35.943212 -12.791681
Si   -8.393907 -22.560594  20.561365
Be   -3.211209  29.055519  -1.300964
Nb  -10.833144  26.547896 -16.483081
Ne    7.016135  36.614827  -1.986143
Ca  -35.475296  -3.415525  18.023694
Ti   -3.468126  15.848329  19.851863
Ho   10.846220 -25.953453 -30.916723
Tl   25.623881  25.839511   2.442022
Rb   25.417380 -19.599934  28.983452
Rn  -15.016080 -37.774627   2.295579
Pm  -30.613170  22.748426  23.412517
At  -11.101014  28.986130  15.759781
Pr   -3.327384  -8.015144  32.480157
Xe   32.081662  -9.686510 -28.264786
Sn   19.246182  22.307806  12.086657
Y     7.444474 -20.524965 -20.519478
Ag    1.525576   8.174816  34.078404
Ge  -11.735538  21.658104   9.217897
Na   -2.362597  24.561927  32.046219
Zr  -38.594068   0.436071 -10.321294
Zr   37.414067  11.031488   2.134466
Na  -20.155150  -6.058680  35.651029
Rb   32.072639   7.002219   8.459639
Cd   23.083831  13.495328  16.159856
Sr  -43.069014 -10.222834  -0.173747
Rn    1.440412 -32.035907  -4.623703
Zn  -22.955324  -7.123784 -13.222306
Lu   15.972907  -8.819764  21.617532
C     7.884197  18.607027 -22.939201
Pm   -9.083010  32.755876  25.883112
P    33.228682  19.664275 -21.581830
Re  -10.255938 -36.261492 -10.850928
Au  -13.236771 -36.868184   3.072044
Pd  -23.890595   6.329082 -35.352255
Hg   -2.457505  14.475831 -20.604356
Hf   30.402192   0.253158   4.851021
Mo   -2.479169  22.084098  15.784268
I   -35.253276   4.017656  27.155742
La  -19.313459 -14.145380 -28.747062
Kr   19.695252  34.660948   2.353284
Cu   -1.872928 -19.993410  37.000933
In   11.182335   3.131376  41.814554
Xe  -17.745370 -21.765177  -2.133642
F   -10.895816   7.498136  24.221663
Hg   36.811380  12.170569   4.967712
Ta  -24.778631  -2.243252 -17.998568
Ne   15.365151 -39.922409  -2.197637
Dy   10.605744 -37.580950   6.000379
Os  -18.551200   3.099098 -23.040518
Re  -24.385509   8.765388   9.085438
Pm   33.053858   7.697148 -19.720664
Tm    0.694930  23.208631  -4.481114
W    -3.389538 -17.198154   5.311977
Ni  -10.389547 -37.866023  -3.384686
Hf   35.766876   3.105727 -24.102476
Ni  -22.542214  24.452783  -9.587130
Er   -5.697456  -2.422874  42.531883
S   -43.434513  11.908021  -0.536259
At  -26.740012 -19.247880  17.307433
Re    6.100436  29.844128 -30.244923
S    14.084564  41.718818  -2.528349
Ge    1.324657 -27.780157  15.543176
As   -8.377748 -16.342330  16.299729
Ga   17.568963   8.256380 -35.529420
H   -27.199906 -19.068287 -24.007394
Kr   -0.570922 -19.525655  33.121536
Hg   -1.065823  13.404681 -39.855629
Eu  -30.172264  10.496227  11.196734
As   12.853533   2.415060  18.009967
Ga  -12.808747 -21.281444  -0.497060
F    -8.262769  -9.025758  36.998596
Mn    3.197960  26.804658   9.059285
Sr   39.110066  -8.208601  21.855511
Tc   35.368052   3.460394  10.613979
Pt   -5.846380  31.020209  18.116656
Y   -25.805178  -7.280811 -29.613131
Bi   39.203611   0.198291  16.779596
Eu  -31.782824 -32.299120   1.685576
Ti    6.538232 -11.631689 -15.431927
V    -7.348818 -14.812198 -40.880619
Nb   41.172533  17.821129  -1.228607
Ti    4.283938 -11.752147 -14.766935
Mn  -27.717974  -3.779831  13.346043
Bi    2.461384  25.212955 -25.971506
Cs   10.867467  -9.200874 -20.422050
F    19.142212  16.313547  22.592243
Re  -19.553784  29.581724   1.174133
Ag  -18.603094   9.390235  -9.491136
Cr   24.258432 -14.976773  20.307867
B    12.249637 -21.602855   7.927663
N   -28.307336   5.345858  -2.573034
Zr   14.050312  16.178661  -8.070781
Br   19.941063 -27.238384  22.932419
Xe  -18.514865  -0.771418 -36.759721
La  -17.458698 -13.997255  17.685560
Ta   38.982813  -7.709725  -1.876609
Mg  -15.459936 -12.620734 -11.656532
Y    15.688462  13.567788  37.153315
V    18.789271 -10.252950 -26.207072
Mn   31.486845 -18.223838 -25.698173
S    33.422398  -1.399855  -8.288744
Fe  -17.738557  -2.097153 -16.653830
At  -11.375004   3.360734 -29.191520
Na    9.407160   5.203005  33.842088
Co   10.299431  -7.637374  39.723694
Pm  -15.830961  -6.937531 -20.475793
Lu   31.607049  -1.499728  18.206135
Os    3.981984  -0.721685 -26.470888
Ta  -18.652779 -13.696890 -11.392227
La   24.591027 -14.810481   0.521151
Kr   15.874898 -14.904729 -19.942425
W    30.331305   4.614470 -16.122540
B   -28.073780  -9.286703 -29.378563
Sr    4.356133 -12.573519 -14.566784
Sn  -29.557323 -31.839418   2.915590
Ir   10.670736  -0.689835  -8.489623
Hg  -28.059269 -29.904294  18.047794
At   -7.040707 -27.140416  25.791027
Al  -42.171977 -12.857116  -6.335883
Sn   -6.593215  35.642655  17.691837
Hg   -4.933141 -40.465758 -11.582760
Sc  -35.424236  12.904922  22.407259
Al    8.750042 -16.921334  37.846491
Cd  -11.048849  -5.313459  10.101673
Se   -0.086203  14.253019 -31.578189
Tc  -13.202805 -12.178017  -3.421927
S    -8.250190  23.861125 -25.189217
Zn   12.801946 -19.845967  32.686411
Au   -0.057258  17.744952  -3.535993
Ag   -4.309574  11.569500  -8.395662
Lu  -23.657105  12.814281  28.318334
Re   -6.728519  11.043501  -5.214677
Cs   -4.382039  -4.111979 -11.095604
Er   15.793208   0.693253  33.375088
Sb   29.351334  19.412665  -4.602122
Cs  -11.422472  -1.902581 -28.878119
Tl  -36.050098  14.132306  22.935622
Pb   19.198176  -3.171623 -18.621479
Ni  -24.009790  -9.181157  24.207709
Ta   -0.325938  36.885697 -12.728257
Cl  -11.336819  -7.254696   3.880889
Cl  -42.204817  -2.312357  17.168300
Sm    4.217281   1.915497 -41.848684
La  -13.417544  17.977914  33.180839
Sc  -15.138809  29.633549 -25.738097
Xe    0.014420  16.867651 -29.553798
Ba   30.199822 -10.404840  10.861419
Mn   -7.591560  -0.331888  31.387118
Tb  -21.586825 -13.862422   9.230588
He   24.147638  12.893960  -1.048592
Au   -2.262851 -26.606533  10.771218
Y   -23.498384  -0.832889  18.024948
B   -21.959330  24.803525 -24.696346
Li   -8.653390  31.493978  23.001344
As   -2.686688  17.212250 -33.349982
Nb    6.666740 -19.615927 -20.940724
Pd   34.972036 -21.075294   7.682474
Cs   31.521817   2.184598  11.601784
Yb  -32.043762  22.399006  21.362794
Kr   12.855505 -25.372706  -0.195817
Sr  -14.370686 -34.904699  -0.687075
Sc  -12.051431 -30.188666   0.263332
Rn   -3.766853  20.024705  -6.303938
Eu   17.570922 -21.815912  16.515428
Sn    2.531039 -24.022136 -12.019915
Ho    5.799042 -15.871377  25.407681
I   -33.412194   0.245800  17.919980
Er   -9.423244  21.020324  20.241532
Xe  -13.012207  31.737314  24.364256
Pt    6.118549  42.753294  -9.070125
Ca  -15.115908 -13.393042 -21.145014
O    26.687730 -13.867241  33.374334
Xe   -8.903265  22.985290  33.573323
Kr   35.350228  20.309308 -10.378634
Tc   19.528674  21.685849 -33.276434
In  -21.563812 -20.571422  -3.341558
Ru   -6.346859  21.173831 -32.951252
Y   -11.024858   3.088460   0.788075
At  -11.907594  31.413935  24.370360
Ca   16.728446 -10.373085 -20.144620
W    13.849824 -35.288795  -1.430546
W    10.181371 -21.186708  22.703542
Sn    2.676828  29.239290  19.124817
Tm   -2.034391   5.100081   7.998159
P   -12.161259 -17.961126 -31.934915
Rn  -11.442216 -11.986243  23.929530
Rh    1.441455   4.575756 -13.280388
Po   18.288433 -34.873846 -15.107003
Ne   20.843787  -7.259185  -4.982642
As   13.568522  -7.722292  23.151974
Tl    9.897733  21.173985  20.805095
Ca   14.934118 -25.742619 -18.369950
Tc  -11.744811  40.617090  16.321501
Ti   28.009037 -28.738671   7.008226
Cr   29.102943   6.300093   4.398407
Rb   -7.485125  -0.409167  35.698041
He    5.760944  -4.665325  18.269242
Ni   29.782713 -20.857855  -6.262298
Nb  -10.543498  -1.936837 -27.362848
P   -11.380288 -19.703846 -30.397514
F     3.643362  34.392040 -22.161657
Br  -12.889899   4.821000  35.500799
Sm  -34.769035  -3.607605 -12.798403
Ge   -8.736878  -5.956942   7.517555
Eu   12.730567   9.842793  19.208795
Ne  -12.578802 -39.678519  -3.270758
Au  -10.078477   1.866650  26.463947
At   -4.980851  -2.780695  -3.351854
Fe  -18.271784   4.804393  24.320718
Ne    6.573821 -35.839432  18.802532
Dy   -5.795226  18.589300 -36.773974
Au   21.949628   2.675790 -12.749733
I   -19.486104  36.603126   6.910783
Dy   29.298851 -13.764981  31.109226
Co   -4.925198 -22.033612 -10.429261
Y   -11.139898 -13.123776  18.913137
Cu    1.938775  20.326210  39.604406
Sr   -7.060391 -35.004668   5.915554
Sn   14.529372  -5.570987  14.228930
K    25.969025 -17.196667  16.590087
O    10.705028 -13.306083  16.142864
K   -33.659017   7.339710   4.191760
Cu    0.658982 -28.164767   7.151039
Yb   21.660442  10.863171  30.084713
Pr   19.352272  14.629456  12.874727
Fe   35.954652 -18.526860  -9.821515
Ar  -30.209317  10.288207 -21.834029
Tm   13.644027  16.400453  -5.919435
Al   41.262140 -15.801200 -11.442330
Dy   -2.619862   8.870627 -23.178150
Y    -2.447576 -11.996026 -12.354689
At   28.289423   9.283733 -26.087793
Y   -40.534904 -18.830001   6.629081
Na  -14.581489 -27.138231  -8.074770
Yb   26.273217  -0.836047 -16.859951
Pd    6.939632 -25.086217 -11.268134
Ga   -1.858491  14.094003 -29.599295
W   -13.913802  -2.255911  43.139019
Rb  -12.849652  -7.105050 -26.574384
Li   27.660474  -3.874718 -10.620036
Ni  -10.932363  16.299175 -10.479826
Co    2.346075  -0.721050  41.445066
Ir  -22.728746 -26.232008 -19.439234
Po   -3.338214 -24.799081 -27.972726
Sm    8.533193  -7.019952  43.507365
In  -18.602647  32.344540  18.479552
Tb  -28.282554  -2.305601  13.695816
Rn  -18.329060  19.442386 -16.634416
Tm   33.124146  -1.921506 -17.964210
Ne   24.120403 -24.727473   9.985187
He   20.395784  -1.852561  19.101918
Bi   35.897406  -2.251798  19.975683
Cd   26.771170 -17.756164   7.106097
Mn   18.898024 -21.405117 -32.267436
Gd  -41.880114   9.162622  -3.407354
Lu    4.314885 -31.114435  30.648354
O   -15.312573  22.015309  29.913716
Cd    2.220998  35.262201  -8.037060
Nb   13.471796 -30.730029  27.561720
Rb  -35.704582   8.138505 -24.926435
Pm  -24.465519  25.574051  24.813847
Ni   30.711199  -4.444942  -4.885059
La  -10.991600  -7.872371 -34.052512
Mg   27.521986  -1.411896  30.579198
Sn  -27.688662  -6.319430  29.751833
Re  -16.961264 -14.720539 -12.190645
B   -29.653965  -9.732206   3.865007
Ho  -35.494473  28.260224   1.456463
Tc   -0.731082 -22.139585  27.607291
Sr   26.341743  28.395806 -19.543993
Cu  -13.646110 -27.300174   6.297154
Au  -14.127912   7.917962 -37.369340
Tm  -28.039008   6.528863 -29.237736
Al    4.419816  -0.411474  21.439282
Co   -3.289006   9.991674  21.181662
Pm   20.187442 -12.859899  24.027464
Be  -43.778080 -10.611218   5.245131
Ho    0.097741  -9.835476  13.153564
Br  -29.828849  17.108352  -0.486222
Os  -15.625156  31.873293  -3.939965
Al   29.383211 -10.594661  32.461758
Si   -1.964839   6.933407  21.849053
Cl  -27.825691  25.562321  -0.315926
Sb   15.985717   7.218798  12.796177
Ca  -25.959781 -16.111203  33.528321
Zn   28.860144   8.377659 -28.358411
Rn   30.754897   4.959219 -29.041152
Rh   -2.118450  -5.406436 -12.772933
Hf   -9.936081 -12.257235  17.885176
Au   18.188973 -26.985555 -18.475342
Cs   -3.859534  -7.979352 -19.254706
Tm   -3.641342  41.312833 -11.225040
W   -16.149407 -11.733272  15.355429
Pt  -23.335213   2.567783  35.729461
Ar  -31.271522   8.299413  -0.224843
Cd   15.315438  16.995078 -32.845225
Yb   14.803716 -17.121661 -28.031251
Rn   43.967243  -0.628080  -8.987755
Li  -11.645226 -25.642911 -24.423396
Dy   28.986484  20.659911   6.836722
Ag   -6.847526 -10.879571  22.720978
Pd  -19.105250 -25.839129   8.218416
Pt    2.077753  42.213229   3.673245
Ta  -19.705197  10.726559   8.719330
Ir  -35.782880   6.972818 -24.907946
Tl   26.970943   4.282545  10.046753
Mg    7.654262  35.207639  -8.038163
Xe    3.507747 -13.925165  38.593723
Hg    9.937656  40.715953   4.764111
Fe  -31.196140  22.173261  16.046303
Lu   12.120468 -33.096768 -22.447648
S    -1.126879 -22.389112 -36.771767
B    25.536635  -8.565851   7.603751
Po   -6.548892 -15.530589   2.236037
Cs   12.941248  34.718838 -21.322647
Yb    0.541918  33.664221  -6.776221
Rn   -7.173238  36.442330  -2.913675
At  -23.098794   9.668045  27.103454
Zn   12.918271  24.801116 -23.987366
Rb   22.044711  -3.332684 -10.943322
Bi  -24.134427  -4.861747 -24.819133
Nd  -17.239903  10.490441  13.871288
Dy   40.712896  -9.529064  -0.004139
Sc   19.015662 -18.881993 -24.581447
As  -11.157561  29.627223  -3.430548
W     7.202482 -23.734657  20.126936
Re    2.572082   4.808014  18.135963
Si  -38.150434   4.128131  -8.473196
Ge   -5.459032   6.104371  15.030479
Mn   -6.054811   8.678631 -40.590310
Br   -1.349957  17.104427 -12.878600
Zr   38.054416  -6.418074 -20.867864
Yb   -0.350497  20.969386  17.639453
S   -36.330210  18.472932   6.173345
Sb  -17.054138   3.541472 -23.941006
Kr  -10.159039  22.945818 -27.928927
Ru  -11.347048  38.198396  -5.592032
V    26.478573 -25.423604  10.462511
Yb  -18.061654 -20.295365 -25.001439
Tm    3.925719 -31.185063  -5.502244
Ca  -17.574715   2.069494 -20.218306
Pd   43.339514   6.162441   6.516981
Po  -18.036502 -19.345237 -10.038617
Au  -19.388408 -34.297882  19.205668
Y    -9.567751  -5.927069  19.017353
Hf  -19.938967   7.259337 -15.735958
Cl   15.317996   1.006658  -4.635503
Pr    0.534623  35.240180 -13.316266
Cd   28.530134  -8.246559 -29.842503
Kr    8.983508 -38.572899   7.766436
Yb  -14.054678   3.573773 -41.988271
Ti   32.388006  23.982271  17.340547
Co   27.226045   7.566758   3.893960
Br   -0.106343  12.080876   4.815255
Xe   11.327391 -19.603449  37.060412
S   -36.031728  25.945279  10.774916
Hg  -28.679355  -4.042774  -4.643309
Pm  -16.344593 -15.987240 -23.688550
Ce   -1.761423  24.914725   4.244272
Ce  -23.713072 -21.422747  15.405318
Pb  -38.067876   9.166911   3.452025
As  -18.095813  11.432419  -2.330255
Pb  -31.527131 -11.657240  -2.697852
Po   -3.644930   4.584061 -38.380077
Tb  -10.590505   7.040142  22.965155
Ba   14.031162  -8.214988  21.667500
Er  -19.961725 -34.535557  -9.998287
Fe   -2.191993 -18.276101   8.785969
Pd  -34.427294  26.509634   8.477611
Si  -16.393504 -27.815013 -22.430591
Rh  -15.955659 -11.991621 -40.967215
Hg    9.726851   3.308158 -19.208995
Rh   16.300430   9.371814  11.247015
Gd   25.013578 -18.507651  18.517045
La   -3.747376  17.665649 -27.455955
Sc  -12.778562 -32.591446  10.126706
F   -17.887828   0.439863  35.024555
Nb  -26.714491   1.887433  14.509949
Zr  -10.054782 -16.378699  14.821162
Tc   23.621413  -6.657454 -10.553559
He   16.830140 -21.082816   5.912141
Hg   18.033401  16.547144 -17.384420
Nb   29.645772 -17.752185  23.678097
S   -24.042709 -15.452523  12.869354
Li   23.908276  11.485646  32.014572
K    -3.436922  10.841666  20.428500
Cr   22.853452  32.498525  -5.854272
At  -29.341967  -7.569646 -29.920325
Al  -23.100777 -22.822961  -5.769940
Yb    8.410968 -14.366137 -30.287783
Ti   11.937106 -11.054261 -21.598109
Nd    0.657121 -31.628322  29.458111
Ga  -18.937319  10.721239  12.360828
Hf  -28.391823  18.835615 -20.747234
Au  -21.517473  19.305400   5.265018
Li   -3.237466 -14.027125 -20.296179
Er  -21.219335  12.848497  13.926983
Sr   -0.499203 -21.018005  37.539435
Al  -42.871123  11.923362  -7.602335
W    24.054926  10.589629  21.654707
Zn   24.195109  21.923160 -24.130280
Os  -20.217347  11.879263 -17.927611
Ag   -2.157113 -28.780305 -29.901755
Ir   -1.857049  14.740196  26.916675
Sc  -10.006543  19.615217  -4.826555
Rn  -11.990668   6.936334  -1.950926
Cu    0.050976   8.654599   7.278148
As    4.975046 -20.520921   4.130609
Sn  -33.032377  25.016914 -12.025248
Ge   17.828586  32.529017  14.315826
Au  -19.237839  15.131942   7.737249
Ag   14.359814 -13.354348  39.258908
Nb  -19.267802  33.397521 -18.035400
Cd   -8.448672   7.944975  44.128657
Ce   31.354471 -18.881017  14.896456
Ag   29.966023 -10.264268 -20.295435
Mn    1.752045  16.362923 -33.530668
Hf   30.393279  11.005458 -17.781293
K   -21.912798   6.923003  18.408399
Ce    6.198427  37.762821   3.480632
B    27.549689  -7.482416 -13.016225
Cu    3.482163  10.784465 -38.210534
La  -18.175467  14.121298  26.218899
Sm  -24.125343 -18.755466 -21.878895
Be    1.358648 -14.321918  23.162935
Zr  -25.218966  35.385971  -3.373636
Li   17.568087  24.932453 -19.177045
Sr  -13.962163  33.997249  14.136719
Al   -3.594578  35.863053 -27.510981
H    23.568036   8.771574 -33.529697
Po   22.050981  26.858730  16.963747
Na   20.315525 -28.975951  20.580006
Lu   21.214272 -23.799395  10.741313
K    11.797325 -10.973245  28.059655
Lu  -13.938281   9.883367  28.373092
Ta  -35.578245  18.085568 -10.094017
Cs  -28.876929 -29.766511  18.207541
Lu   20.796071 -15.660095   4.444966
W    20.393312  -4.887391 -13.214111
Cs  -17.906001   8.865812 -18.271006
Br   17.717434  -6.195348  25.167141
Tm  -37.174861  -5.970504 -15.044040
Ge  -20.468941  26.564317  13.466795
In   29.619284  17.780707   7.322655
Ir   12.085169  28.610868  15.808146
Pm  -17.760252  25.540524 -14.312343
Gd    4.740556 -17.030847   8.469755
Rh  -11.733006 -17.580448  39.483577
Dy   -2.871407  25.656418  30.180459
Ar  -12.800541  36.573958 -14.353899
Mg  -24.476886  -5.236378   1.183357
Ne    2.170410  43.116384   1.654847
Co    0.435369  -4.468560 -14.999094
He  -32.056226   4.131129  20.184820
Hf  -14.798443   3.058286   1.024058
K     0.787582  26.353423  15.741425
Br   28.346700  -0.723006  14.873152
Nd   15.732083 -19.831661 -18.505217
Br  -20.738174 -25.253041   1.257824
Mo    6.726496 -32.316914 -10.405368
Ni  -19.125434 -10.321049  21.012650
Br   -4.326924  29.935085 -10.899581
Li    5.235228  -8.136966  18.460900
P    25.466160 -18.910908  16.578767
Y     3.316706  34.796049  -4.440860
Te   29.237475  16.805224  -2.477687
Y     6.917448  20.467638  31.626970
Sr   17.409224 -28.541063  -9.116823
Cl  -23.962929  -5.968983 -17.656383
Hg   -7.841206  25.993413  14.591133
Eu    3.984597   6.628014  21.460595
Er  -10.028135 -13.249154 -24.295401
Ti   29.584359   3.347564  18.689215
C     8.280475 -11.140339 -19.746515
Cu   -5.253998 -37.957791   3.127848
Ag   20.832911 -11.566262  23.976093
Ag    4.075203  18.729972  19.381632
La  -10.256543   7.759417 -32.094946
Sb  -11.269058 -25.188830 -21.724879
Pt   14.131129 -20.839541  21.450466
Tb   15.857768  11.900831  33.273640
Ne   16.788710 -11.338683  37.870119
S    10.318513  18.665410  22.354876
Mg    2.755242  21.756873 -28.968490
Sm  -42.060793  -0.806342 -14.276652
Pd   13.503031   9.960550  19.507248
Er   26.966339  24.474596  22.492320
Nb   18.379745 -27.071579   6.313128
C     5.817525 -28.204464 -25.865341
Sm   -8.660922 -21.219576 -30.556173
Re   -5.532115  18.039017  -0.571880
Tl   14.205025  -8.808434 -22.817245
Os   26.062063  19.423451  -1.528323
Os   -3.855652  -5.320085  -0.525264
Pt   27.665169  11.092979   6.997745
Pd  -24.713130  14.883126  22.564039
Na   11.822137  -0.690656  11.840633
Ni    7.337017  34.310462   5.054638
Lu   15.882322  29.422871  29.634609
Ga   38.004173 -19.476081  -1.354524
Eu    4.915296  24.813164  13.423943
Tm  -33.939528  -4.788725 -23.588256
Be   14.136343 -15.954596 -19.167707
Re   24.145743  27.163819   4.971634
Ta  -37.577451 -15.562762   4.086770
Na   -4.407622 -16.211544  24.445861
Mo   10.502921  24.580184 -23.541690
Pb  -19.695857  24.608874 -24.068586
Lu   26.021138  16.293550   9.115342
Te   14.716373 -12.293843 -11.654741
Te  -27.342220 -18.097920 -10.708346
In  -17.709647  -2.150572 -24.031485
Re  -31.516204 -21.868058 -14.117171
Y    32.989840  -8.422369  24.194927
Ce   -0.020026  38.511230  -5.329053
Tb    6.561060 -43.944027  -9.749389
Ar   25.443257  36.821951   2.255979
Co  -19.481178   6.920936  39.907333
Pt  -11.513432 -13.447943  -4.154007
Mn  -19.318131  -5.645185   4.667088
S    -0.086063 -18.759647  19.626090
Pm   32.183123   3.799939  23.258234
Pr    5.779448 -10.993638   1.514538
Cl    3.205564  -8.151453  15.160972
Pr   24.022375  21.427379   5.397161
Se  -29.626347 -28.177896  -7.956260
Al    8.442883 -11.216626  35.514590
Eu    2.185883   5.232100 -30.987671
Ho   -5.608447 -18.974160  29.498058
Ce   27.132063 -21.838185 -16.944678
K   -41.561945   6.702199   7.126368
Pd    7.864099  22.670688 -27.846479
P   -13.187373 -28.220298 -24.641470
V    13.115810 -16.410277   4.282771
I    20.956214  -0.895642  10.907562
Al   -1.619272 -30.372224 -20.944782
F     0.623083  -1.723373 -29.637919
Zn   21.060162  -5.019742  38.287046
In   -2.211252   5.089478 -27.756161
Ne  -16.249399  21.532412   3.059960
Al    4.309401  14.119235  36.462920
Hg    3.037597  21.868182  38.387023
Pr   22.339386  11.746430  -0.625619
Os   14.021959 -33.642193   0.567021
P   -18.485999 -14.244724 -30.281302
Au   24.576898 -12.590748  25.480787
Ir   -0.202270 -23.780277  -0.707846
Cr  -13.646730 -21.000293  10.140659
Se   18.200725  13.149781 -35.036597
Al   22.448955  -9.294404 -25.744752
Ar   14.822516 -38.095794  17.656747
I   -28.177214  12.774895  -7.846819
Tm   12.339995  -8.968895  41.838464
Ta   36.735617  -6.188483 -23.227271
Po  -19.307251  39.317294  -8.448518
Ba    0.158895 -29.048155  -9.350886
Ag   25.205004   0.234711   1.511550
Tc   35.000594 -12.869709  -6.641694
Hg  -17.197138  -7.850221 -19.702613
F   -21.722551  30.023287  11.905284
Pm  -25.277907  30.018416  21.682957
Ca   17.693226  29.825847   0.520464
Sr  -17.603741 -34.408700   5.451364
Pt  -23.261249  24.020118 -10.958602
Rn  -17.511544  26.956164  -7.641532
Cr   -0.120098  -4.504140   4.842116
K    32.303691   1.568581   2.201173
Sr  -13.643536  14.429548 -25.806403
Tm  -10.331317 -26.525827  -7.507152
Cd   -4.088518 -15.347762  35.672590
Tl    8.373255   9.931177  12.585341
Ga   -6.377409 -24.123395   8.652024
Te   28.311325   0.874780 -24.813898
Ni   -0.226821 -22.579501   3.939313
Ca  -33.347932 -13.304230 -17.999474
Ru  -12.008631   9.223235  28.616925
He    4.298958  22.105746  37.212506
Mo  -15.998269  10.040821  13.976052
Sc    3.909890  12.684443   2.725558
Eu  -10.973514  30.148580  -6.537816
K   -37.905515 -15.069689  15.181030
Dy   38.549762  -0.277434  -7.337256
I    10.235647  26.514113 -15.819350
Hf  -17.868088  -5.411216  40.356821
Cl   35.556314  -3.659744  -0.806140
B    24.843567   9.722200  -6.507342
Ga   11.789469 -42.443567   3.064151
Rh   33.335995  16.436842  -0.123170
Mo   24.342586  -9.516096   6.816732
Mn  -45.030551   3.612945   4.775777
N    -3.016242 -21.445786  34.671135
K     3.361354   3.827737  -7.895062
Cu  -16.245118  -9.310686 -12.689563
Lu  -16.299427  11.674429 -34.687050
Tl   16.951160  -8.087902 -10.562576
Pd  -36.551026 -10.968438 -18.999383
Ni   26.815227  20.550730  13.127471
Eu  -25.401932  13.657710 -15.903370
Mn  -35.700563   6.191914  -1.790335
Xe   27.435657 -15.375391   8.230337
Dy    6.618758   9.306265  19.265110
Ar   35.908103  13.133955  -8.981584
Be   12.647629  13.814862 -13.834618
Tc  -25.446345  22.917607  14.479104
Tb   17.873598 -39.122117   8.484215
Nb   32.885473 -19.845840   0.843581
Cd   18.759120  11.651165  32.294417
Mn   -2.568003   5.861077  44.457595
O   -18.611129   9.128074 -37.288002
H     7.561701  29.102696  21.215928
Te    9.438795 -18.152843 -14.764269
Tl   16.933353  -6.825956  -9.373927
F    11.967432  16.653053  -5.575551
Zn    9.016087  -9.372915 -10.448089
Sm   21.690428   4.941247  28.775057
Al  -28.498749 -11.759609 -18.243902
Ti   31.462463   3.361115 -23.199867
Os  -23.909485   3.423398 -13.952963
Mo   36.273202  17.344748 -10.668558
Er   -4.827478  -4.665675  21.170182
Sc   19.390835  21.380449  32.570556
Pt   20.394652 -20.337067   3.973152
Ca   11.533041  -4.624312  28.603485
Cr   40.074599  15.724830  12.352816
Na   -1.270182  32.956214 -20.060800
Zr    8.029133   6.177154 -16.633196
Os  -32.595123 -27.242914 -14.351654
Ce  -34.948174  -3.111191   1.190337
Ne  -29.684764  16.876993  24.051964
Nd  -20.429660   9.308599  19.595977
Zn  -18.285586  22.472141  -4.684108
Pt   -2.902425  16.236677   1.250938
Ba   11.208502 -38.094731 -17.643479
Os   34.927768  -3.823787 -11.418355
Ho   21.931843 -25.850868  23.670121
Pr  -26.327348 -16.277947  24.226035
Pr    7.770752  12.510820 -22.816897
Pt   -8.356785  -8.455200 -30.994781
Eu   15.822715  21.588590  25.971655
Cd   26.119727  -5.356700  -9.513621
Si  -21.363905  23.187515   8.695272
Kr   12.754588  17.757533  25.719150
La   -6.043634 -32.349569  -9.272388
F   -22.396665   5.530771  -0.699607
B    35.094433   3.508032 -24.790954
Pm   -6.589385  21.169109  31.750076
Pm  -31.553236  19.829114  13.622638
Rb   17.489184  -3.281405 -17.351559
S   -36.405425  -8.128477  13.382567
At  -10.464408  25.278974  13.791932
W    33.542932  -6.416220  19.383611
Zn  -17.335385  -5.258254 -32.556630
I   -31.405474   4.241713  27.478111
As   13.569855 -36.619359 -13.383770
Pb   -0.989552  32.760334   4.218290
Si   -1.585661 -21.186342  14.687081
Na   43.193570  -8.293453  -4.126723
Pd    8.069388 -31.118711 -28.260099
Co   -5.019190 -44.631776   7.875475
Ho   -7.186200 -19.714483  -1.963798
F     6.655566 -10.969014  -9.045571
As   15.122801 -18.638587 -15.748029
Rh   36.821669  -0.824356   3.163032
Hf   17.983093  36.137845   0.736852
Al   -8.582592 -29.252578 -12.301107
B     6.471155  26.781600 -10.148177
Pm  -31.903369  30.564912  -1.952245
Be   26.309814   3.027876   1.055123
Rh    6.721818   4.052028  29.153517
Pr   -0.653531  13.000047 -18.698155
Sr  -17.473321  -5.376042  20.142217
V    -7.186096 -20.932876  27.107517
I   -13.676758  26.780814  23.252585
Tl   -2.470396  21.864111 -27.383569
Rn  -31.001218   0.798411 -27.675056
Ar  -27.397147  24.892186  25.762121
Zr   18.155176 -32.085300   9.052741
S    17.403800  -9.091045 -27.962937
Ba   24.419378  36.709640   1.061515
As   17.355476  18.855639  19.226135
S   -19.893039 -29.013492   8.835239
Cs  -18.647675   2.899234  39.781033
Hg  -28.573726  -6.673094 -10.726686
Be  -14.242336 -22.555523 -28.147440
Yb   11.507865 -23.509121  24.801011
Br   36.586946  -7.437072  15.939506
Sc  -13.351003  33.156397  19.469627
P   -22.469407 -17.200395   0.745070
Xe   40.653103 -11.601687 -16.530266
Sn  -11.402329   6.601989 -34.595291
Tl   38.277899  -0.831055  -1.597253
Li   -4.608433 -21.044361  23.760799
Bi   23.326972   8.808535  -5.793857
Si  -30.998453 -28.698917  -9.746620
Se   10.237059  32.461056  -1.369576
Se  -20.897575   0.586865 -36.478461
Cd  -21.246295  20.054243  29.504408
V    -9.429469  19.051230 -17.814319
Cd  -24.028684  20.832245  30.151767
Cl   33.753653 -24.924689   2.414097
Os  -24.108489   9.318449  36.843535
Zr   -4.528717   0.758901 -37.036637
Ar  -30.557468 -26.468354  21.229160
Mg   10.675479 -11.794074  41.896479
W   -28.031039 -29.643425  19.164070
Eu  -33.136467  -0.728846   4.395062
Br   -2.972652  16.359266  22.050860
Ge  -35.692808 -14.104414 -14.719555
Ni   31.885821  -0.035690  16.813178
Gd  -22.672984  27.124633  24.662189
Pr   14.785696 -23.730986 -31.540399
Ni   -9.051431 -11.896102  -9.100978
At   -4.740990  40.149897 -17.439516
Cl   -4.172109 -19.019599  27.120643
Ba  -22.823218 -16.655658  30.401682
Sb  -28.014335  14.618673 -26.928791
Fe   22.718274 -25.541278  13.477411
Tc    8.111973  35.387349 -21.162503
S     0.222394 -19.174150   7.995176
Ir   10.785643  32.688425  24.213555
Ne  -13.669744   4.248310  26.700113
Po  -41.540680   5.289334  16.605991
Fe    0.851738  -8.931338 -39.554999
Tm  -11.510902 -22.523072 -29.931076
Ta   34.544666  -6.258451 -17.453534
Yb  -23.917007  -9.851568 -12.831349
Gd   27.890275  31.822082  -3.263546
K     3.158622  -4.523457   2.112682
Xe  -22.610000 -27.972757 -10.420389
Ni   21.219854 -21.891179  26.260540
Co  -21.609578 -24.967207 -30.864774
Ba   30.282279  25.645764  -0.340682
Se   19.375778 -15.664423  25.807611
Ag   22.673693 -36.897910  14.594421
Po   -7.630456 -17.885384 -20.804025
S     3.821576 -28.882164  33.230891
Li   -4.559956 -14.087667  29.754866
Ho   15.794006  37.922268 -15.329861
Co   22.371407   9.711095  30.654528
Pd    3.626455 -16.726434   3.197986
Ne   22.635574 -30.823648  12.350266
Tl   14.079790   3.611977 -41.650110
Mn   11.386134  25.584479  -6.248579
Pb   -9.017906 -35.568597   5.681428
Li  -13.548600  36.093020 -13.795980
H    12.103471   0.484222  18.460154
Ir   10.096907  25.503274 -34.071593
In  -10.515687  -5.471188 -29.588512
Tc   -0.745959  -0.350257 -37.398037
Bi    1.930286  15.475403  -2.222140
Ce  -12.057577  10.632568  41.551702
Yb   19.169377 -31.251816 -17.015496
Os   14.578978  -9.876197  28.206540
Hf  -12.004328 -17.609477  -0.292379
Mg    1.715181 -21.798362  -3.846978
Ba   10.915020  29.086084 -12.119130
I    31.581789 -18.610055   5.417068
Xe   22.305537   9.061230  36.134576
Cl  -29.806199  33.271265  -3.983682
Xe   -0.012131 -43.126807   1.529209
Br  -30.128680 -14.403079  22.063944
Tl   37.166628  -3.520170  23.271267
Po   36.257327   6.520955  13.755738
Tc  -13.375136 -41.201990  12.500669
Pm   16.121057  -7.369596 -24.143600
Cs   -7.427459 -19.221120 -33.877910
Se  -31.812037  -6.368925  18.839572
Pr    8.212489 -12.824811  25.646839
Yb   25.957624  -8.851838 -26.636871
Dy  -18.635057 -19.321162   7.615282
Ru   35.949562   4.300142  11.335252
S    30.231394  -9.868294 -11.219132
Ne   19.901714   2.191616 -13.975358
Ce  -41.502540 -10.885104   1.172420
Cu   29.705847  10.601606  -3.302593
Ne    0.780412  -0.228258  -9.903994
Na  -32.154886  -9.731578   1.371235
Gd  -15.708582 -21.784975  -7.648887
Sr   -5.893275   2.939700 -44.082218
B    18.002664   5.776682  18.746869
Hf  -26.092941 -36.510259   1.713942
Co   23.565721   4.505060  23.157799
Rh   27.964522   4.546395   0.013253
Pt    6.033014 -26.338844  36.054335
Te  -44.301616  -6.973973  -4.516949
Co   24.004320  -7.883467 -15.910526
Tl   -5.381576  13.115689   5.181627
Al   13.893144 -12.482516 -30.580337
S   -30.816409   9.852384  10.152515
Y    -1.468126  32.769778 -30.354898
Pr   13.157890 -23.151066  11.457315
Kr   36.018645   8.089529   6.944694
Si   -0.508421 -14.812914  28.894375
Te  -14.393210   5.848448 -35.582419
Nb  -34.263039 -12.251427   6.067076
Tl   39.723313  15.590606  -3.936947
Te   -0.941783   7.314821 -39.942283
Hg    3.537447 -20.187560  -0.639351
Ce   -7.409551  26.544015 -28.063518
Te   24.119942  -4.779740  37.068571
C   -39.277512  -7.311063 -14.762608
H    32.707301   8.268945 -15.018530
Ga  -23.747236  -3.658995  15.118881
He  -14.098322 -20.797115  30.991878
Cu    2.590407  -4.897791 -14.093746
Ca   15.635112  11.844882  -5.863578
Xe   31.660245  16.087945  26.901946
B    11.378485  12.821005 -19.327190
C    26.829350  -5.799103  18.014742
Pd  -26.291135  31.766686  12.403511
Po   -8.668850  11.561146 -14.593184
N   -35.677766 -15.572378  21.082083
Te   11.503442  15.223752  -7.396874
He   -6.776474  14.092605  25.691991
Y    22.002230 -28.411791 -20.642003
Rb   14.956063 -34.825942 -10.212630
Ti  -17.871119 -17.178636 -10.722567
Br  -18.667520   0.182412 -18.859282
Re   35.779173   5.078773  -7.208229
Ti    0.338558  21.440070  28.671442
Bi   13.760650  -2.343629 -14.376898
Ge  -11.851241  19.305876  -7.808386
V    25.938296  -0.020545 -13.051765
Eu  -13.156596 -20.674427 -34.369263
C    -1.707121  -4.346109 -28.419219
Dy   37.419019  -2.532511  -0.886766
Hf   18.537642   6.859003 -16.941020
Fe  -13.340702  20.101022  36.734910
Re   32.681429  14.528093   4.328504
Tm   15.815943 -15.971964  10.990352
Pr  -27.090394  25.474160   9.882472
Hg  -37.935080   3.439002 -16.268562
In   30.966786  21.631938  17.266566
Tl    3.510691 -10.523937  18.217599
Ti   17.208993 -17.392027 -35.390498
Tb   -6.749656 -35.930109 -26.128221
Sm  -15.045922   0.024062  33.491834
Ti   -6.531022  35.157114   7.372596
Sc    8.333651   2.464252 -29.819446
Ir    7.453820   4.430636  30.777958
Pb   11.783854 -26.587692  28.683096
Sn   22.748013  28.912740   0.584797
Tb    6.066196  -6.369636   3.216981
S    23.117355  17.117302 -23.753742
Cd   22.772263 -24.731086  -8.204748
Si    8.932155 -25.578667   2.756924
Ti  -28.086027  30.392471  12.522100
Cd   -2.378728   8.745535  17.925159
Cs  -28.743399 -13.785501  26.596740
Br  -28.794701  -1.112570 -21.856713
Co   11.112186  41.219813   1.878753
H    30.518276  21.262234 -13.074857
Ho   29.693163   1.388701  17.274082
Co  -19.307017 -22.633667 -10.013134
Ba   14.755208  39.888389   9.495288
Ta   11.710179 -23.337263   5.938310
He   12.520548  27.516283  -6.629190
Tc   -1.422601 -29.772587 -30.838461
B    35.013248 -26.143094  -7.720268
Te    4.789441  14.418370  41.719717
Li  -20.320532  -7.107688 -26.408764
He   -2.334814  18.231375  29.239492
Yb  -29.082754  29.231479   0.932313
Co   -0.165336 -16.291147 -31.166493
Os  -21.807417 -14.129035 -19.244844
Ho    0.494928 -15.864191 -15.369181
Ru    9.758032  30.240168 -20.635774
Rn   32.558649  15.459985  24.356415
Br    5.470661 -21.779994 -33.512369
Ce  -25.885928  19.789760  14.084856
Si  -33.425338  -5.594518  -9.218478
Co    8.064764 -33.946368  13.174000
Sm   23.917109 -21.397018 -20.794152
H    26.996908  -0.643791  -1.731727
H   -20.292607  28.010617  -8.764975
Li  -32.323510  -3.250085  20.490391
Pm    3.729329  14.406318  -9.004514
Te   37.390242  13.053373  21.562776
Yb  -17.671721  16.515621  13.299710
Sc   -1.011625  25.119556  22.415600
Ho   32.044856 -18.740895   6.451373
Sm   12.183459 -11.266871  11.145722
Al   34.219559  -9.173744  26.737967
Ta   -5.236332   2.481196 -28.584380
Ba    5.834033  39.509665  11.431232
Te   10.369913  13.783807  26.129880
Pm    6.047342  14.360108 -20.276841
Kr    2.224580 -20.189571  34.060344
Eu  -16.902903 -20.466967  -9.652844
He   23.524823   6.468671  30.259587
K   -34.553647 -14.682252  -4.791026
K   -16.174591  -0.606031  -2.096274
Mo   10.648019  40.451647  12.822888
Al   36.307470  -5.962933  17.799555
Rb    6.766822 -44.977449   0.666014
Au    8.765368 -30.699454   7.226020
Rb   21.136654  21.340590  20.485961
Re   10.217778   0.148786 -24.539183
F    15.400718  25.047389 -11.442658
W    -2.911655 -23.659622 -16.060587
Tb   21.498582 -11.255575  24.700612
Ho    1.315180  -7.227666 -12.907507
C    23.193683  19.966199   2.311608
S   -33.727847 -20.523053 -12.668712
Pt   23.135338 -23.486359 -21.084178
Gd    3.845907  20.488078  28.636456
Si   -8.576168 -28.357359  26.614581
Pm  -17.075748  -2.539164  36.047873
Xe   27.942703   5.258016  14.904167
La   -4.646745 -15.021217  17.536855
B    12.170690  -5.504628   0.188557
Ca    8.602799  16.370471 -18.519075
P    -8.559303 -20.710976  16.879857
Ga   -0.747878 -12.188793  10.657001
C     3.367775   0.089575  18.307977
Sm   41.358654 -14.367144 -13.052735
Mg  -42.466344  10.935586   1.182604
V    26.413626 -18.929346   7.247567
Pt   31.212896  23.138453  20.849713
Cd   18.785453  17.264405  31.866435
Ca  -15.028034 -23.657189 -15.307693
Pt   -5.324110 -13.163563  40.576531
In   40.383673   4.304409  -0.735340
Ce  -17.050067  16.271273   5.842399
In  -14.759464  20.062524  -0.997219
Lu    1.512085  -7.943136   6.050670
In   30.780853 -24.672727  -1.302869
Mn   17.670940  -8.829917 -41.016791
Tm  -11.870766  -9.488177  -0.708811
Y   -34.805222  -2.543772   0.195616
B    18.078826  -5.737704 -31.414439
C   -26.135548   1.723689  34.534740
Y    15.928811  -7.120822 -12.728117
Sb   36.012784   5.516976 -27.002471
Te    1.706156  -0.818433  18.419789
Nd  -10.672231  17.576397  -4.007560
Rb   22.128588   8.645749 -26.401107
As   13.499868  26.603107   8.178265
S     5.632046 -35.749604  16.740863
Cl  -18.588108  17.956744  19.749411
He   -6.281142 -34.274051  18.038902
He   13.140860 -23.306752 -17.244556
Pd  -39.972790  10.884432  13.533023
I     6.397831 -13.879965 -11.093303
Cr  -13.877432 -28.272610 -15.540345
Cl   18.278916 -17.247817  18.154344
Po   25.183156   9.416753 -16.261421
Sc  -19.700151  -5.209820  15.259682
Zn   20.355341   8.163695  27.309761
Ta   34.507911 -17.177433   0.663684
Sr   26.401002 -12.269664 -34.910516
Zn    1.929094 -19.422639 -18.190213
Rh   14.306075  26.317799 -12.369780
Hf    3.039970  -0.154141  37.354706
Sc    6.963855  40.324793  20.066335
Be  -20.829540   9.705474  21.912532
Au  -13.972554 -23.224662 -11.350811
Ne   -4.464032 -35.489940 -16.351032
Po  -16.221328   9.159331 -14.184929
Te  -33.434791 -20.463688   9.575225
Ne   32.870063   6.700806 -15.781541
Mo  -24.561204 -23.534870 -14.676579
Br  -21.146636  15.398571 -26.820682
Ag   38.578749 -12.724477 -20.655722
Cr   -1.454533   1.598093  41.801665
P    -1.635686   0.137345  27.933385
Cd  -34.339130   5.805641 -24.808582
La   -1.331812  26.321902  30.089517
V    38.134693 -19.145687   9.570852
Ge   -1.095761   1.426697 -28.118210
Mg   10.350039  -6.378935  -2.506334
Zn  -34.124888   4.585045 -13.182500
Hg   13.495784  -6.943291 -17.458339
Ga  -20.789218  18.196365  17.496367
Ho  -31.613707 -16.190844 -11.511982
Eu    9.298547 -20.366253  22.716077
Na   21.690016   4.803856 -31.536135
W    -1.724217   1.708431 -33.943478
S     0.382110  -0.834249  -9.463943
Ho  -17.483399   1.133912  21.828818
Sc    4.013639   2.004842 -31.919264
Ba   18.469473  -8.197983 -14.843703
K     7.989484 -18.378012 -21.905091
Na  -45.081210  -4.826941   4.395244
At  -20.344884  -0.077081   6.903101
Ta    0.348857  15.430320 -35.883421
Cs   11.365856  19.925452 -34.615582
Zn   -9.611584 -29.863973  23.771365
Gd  -15.848212 -16.354421  16.250266
Ag   33.460972 -29.783959  -1.759890
Kr    5.772661  12.149678 -18.832876
Al  -26.151465  21.916626  22.510134
He    3.278925 -26.820388  16.801103
Zr   25.333161 -25.530464 -19.843776
La    4.527685  33.543712 -15.887352
Se   18.306912 -34.238219  18.565032
Os   -5.363178  31.487596   8.991709
Nd   -0.406668  15.498577 -33.913834
Zr  -17.841655  13.526192  25.350577
Si  -11.429709  15.066949 -19.842589
F   -39.812427   4.980420  11.120116
Al   -9.825132   3.124471 -27.381067
I    16.523205  26.843225 -23.760384
Pr   37.284327  -9.789466  -6.555572
Nd    0.295048  43.694158  -9.014076
In   16.899662  33.420266   1.181403
Rn    5.339791 -13.522849  13.113205
Ni   -7.596937   9.201846 -39.445986
Fe  -34.614126 -23.625058   8.751164
Rb   -1.492676  28.716696  24.357399
Kr  -21.345947 -12.118447   2.435026
Cd   -6.218537  19.164185  28.620687
Tc   -1.653048 -23.495757 -15.196338
Pt    9.275310  13.836238  41.236067
Mg  -33.958230 -23.988701   4.766218
Cl   -5.867648 -24.897887 -34.415296
Cl   16.947209  12.797280  29.352521
Fe   16.711004 -27.585229 -12.107993
Lu   24.069589 -12.821122 -16.933657
Se   13.367546 -36.429124  21.502416
Tl  -32.598562  27.735258  14.809196
Ne   15.683532  23.038190 -13.396193
Xe   41.341693  -6.211655 -11.769106
Be  -26.748460  13.329881  -5.059938
Re  -39.123969  18.341901 -12.266323
Ar   -6.659690  19.430787  22.458913
Al    4.965835  12.457884  -2.259794
La   19.789131 -31.525191  11.996224
Sr   22.198510  27.538970  -2.312430
Hf  -28.386316  12.134220  -5.873073
Rn   33.030247 -21.510805  -0.738930
Re    3.681428  15.313347  10.795599
B   -43.579442 -10.448935   8.359718
Bi  -19.776763  11.757234  -1.503519
Pb   12.591299  -8.005519 -11.899898
Os  -27.228670  30.128106  -9.424218
Yb   10.269588  -6.410686 -12.930676
Be   36.586756   0.919565  -0.834080
Mo  -13.451531  25.497123  35.231652
Ge   19.969178  30.348097   5.935411
I    20.614352 -12.987487  26.832994
Zn   10.647909 -27.534690 -33.636905
Mo   13.050027  28.641324  12.861128
Tc  -31.474620  -9.342212 -18.650240
As   22.263787 -28.335022  11.682600
Y   -19.282876   0.404828 -14.363900
Ba   -3.422778  12.728746 -39.976890
Mo   -1.078551  -6.833202 -21.808247
Yb   31.292896  21.109332  -5.296148
Mn    7.578935 -11.773434 -42.702623
Sc  -39.714319  -2.899293  11.966126
Ar  -28.250675  14.034953 -20.780720
Mg   16.837624  14.958235   2.106520
Ba  -27.510299  20.060301 -18.570971
Ta    6.855681 -27.102059  -9.420532
Hg   -5.957715  -9.696467  24.461248
Pt   -7.840552   8.511076  26.113271
K    31.830342  -6.883389 -25.669657
Ar   13.793639  -9.727572 -17.287742
Pr  -16.602560 -10.788407   0.922824
Cu   27.138688  -0.942690  26.802265
O   -12.585021   3.082045 -28.002574
Cu   18.491935  29.139317  -6.213283
Au    9.146241 -24.536833   0.965522
At  -31.178575  29.114102  15.068209
Mo   18.077640   4.062113   8.525088
Ir  -22.761639   6.802415 -31.214328
Ne   33.754634  22.549356  15.087022
Ce   33.413184  18.424817  11.439439
Ag    9.113671  -1.634300 -39.877459
Pm  -21.223745  19.992571  -8.824731
La  -13.199505  -4.490215  25.561644
Mo  -19.875346 -13.096127  33.002807
Li    1.383648 -35.617400 -11.527888
Sr  -24.235810   7.141906 -34.838468
Tl    5.874708   4.212799  37.304509
O     5.849699 -31.896900 -23.182977
Cs  -13.774972 -23.298619 -17.342967
Cr   36.425224  -2.086890  16.955506
In  -14.809049 -11.627987  11.087436
Mo   13.228511  -9.289085 -29.645119
C     5.555439 -10.996468 -12.079890
Tc   24.054550  36.430247  11.570671
Pb   22.318146 -21.362778 -12.926010
Al   -0.639868  -1.767338  -4.636900
Kr  -21.994177  -9.925503 -17.348225
Au    5.313232  11.252672  -9.373352
Mn  -23.874891  23.785444 -12.692671
Br   15.145838  -3.178486  -1.003193
Sb    9.455502  27.864112 -18.423848
Al    0.817100  -7.415733  36.054979
Re  -21.976479 -27.894194  12.744383
Er   -6.602550 -26.874516  16.546734
Pd  -12.601274 -21.123349  13.101427
He  -34.933305 -24.898496   0.692271
Ho  -22.638976   2.152789  38.675616
In  -37.447466  15.541126  -1.057930
Tl   28.707732  30.648909  -9.526102
Pd    2.167895   2.101700  -0.730850
Ne  -16.835532 -22.295283 -34.745895
Er    1.324991 -38.694691  10.224533
Te   12.230026   7.225551  36.892589
Pr  -14.074637 -23.512516  33.118849
Mn  -27.617373 -17.160972 -30.134308
In    5.477918  -6.448379 -18.154566
Tb  -18.328260 -36.325975  12.868930
Y     0.646891  22.405655  -9.859738
Mn   21.060884 -16.245812  30.838830
Mg   -2.898013  15.168452  -5.383904
Sm    0.752485  12.683911  -4.135794
Nb   12.659468 -13.833669 -25.895412
Ag  -32.774463  -8.699896  -6.977663
Se  -14.054754  15.477772   7.862363
Ca   16.676036  -9.613303   3.352052
Sn   35.276716   4.642436   8.406105
B    -1.306333 -13.016640 -13.832672
Pt   12.849220  30.029001  26.972950
Sm  -33.408015  -8.212018 -11.703622
Pm   13.092642 -10.354746 -39.092879
Rh  -17.629670  20.053415 -32.662291
W    13.248899 -27.046925  21.656568
Ru   17.611645  -0.907627  16.107599
Tl   -5.630905 -38.667912 -10.631336
Co   15.599288 -19.695208 -16.103351
Re   23.706747  -5.336847  10.699957
Yb  -32.589522 -22.152189 -13.416137
Te  -34.737924   9.940145  22.038770
Tb    3.109501  12.147650   1.842321
Sn   -4.276322  -6.794786 -42.895737
Ne  -10.499558  18.816685   6.626385
Pm   12.761460  11.420783  26.632073
K   -21.336508  10.099360 -14.580606
Mo   18.730723  19.116195  22.051517
Ga   22.798003  -4.747977  13.181100
Si   30.178311   9.360374  29.633324
Gd  -18.573692 -37.018445 -15.495006
Sb  -42.142886  -1.259719  -5.196621
H    29.589865  11.534894  31.577536
Be   -8.307168  22.287607  29.904233
Sc  -20.084896  19.384414 -10.632057
K   -30.581081  -5.482747   8.213044
Ni  -39.877352   4.389269 -14.216932
Cs  -29.857217 -21.446487  -1.968918
Ba   29.673617   7.036626  27.978570
Ge   -3.845958  15.715634  40.075996
Be   14.577695  -7.367825 -26.034595
Ti  -23.966544 -12.310778   9.624857
W    18.177137  12.158692 -21.826168
S   -25.082493 -10.638373  -8.398966
Mn  -33.490445  19.075726   7.347285
Ce  -27.184716  28.903176  11.832670
Yb  -24.339024  18.893778  33.166655
Tl    5.496923 -23.713359 -28.768256
Zn    2.846133 -32.085130  -2.201941
La  -11.230810  17.230002  37.952349
Ca  -15.726760   1.554851  -8.656341
Se   26.995727  34.304016  13.482849
Ca   -9.926123 -15.640475  18.056126
V   -21.244929 -10.767606 -15.336090
O   -13.610067  12.658214 -38.515397
K   -27.294786  13.127694  -8.953257
Mg  -38.710829  -2.032968   0.835072
Pb   -4.244363 -22.454017 -32.283407
Cr   -7.049901   5.401272  19.632062
Hf    1.724661 -37.542173   4.363789
Cd    7.438086 -21.568316 -38.699842
Hg  -26.834587  -5.420547  25.568951
Rh    8.852564  30.530050  28.768962
Mg  -27.045978  -9.290560  16.026271
La   -2.245137 -32.995324  12.806345
P    -6.994391  15.539667 -37.612453
Tb  -27.121747  35.688925   4.114240
B    -2.380080  -6.622689 -16.451190
Dy   12.747482  22.521917  31.597368
Ga   -8.718524  -7.339307  12.163696
Be  -23.128215 -11.397717  27.950617
Be   -5.177789  36.263412 -23.717438
Ge   23.444660  30.632847  -1.431146
Pt    3.001880  13.973794  36.030180
Pb   -0.610246  38.516310 -12.885326
Pb  -27.142315 -10.869509 -10.478194
Ce   28.473018  21.483463  24.583220
Tb   32.051794 -21.779114  11.051787
Gd  -19.154374   1.098246   0.159026
Si  -19.286118 -29.192556  -7.757351
Ce   -9.995782 -23.966596   1.391163
Kr   -6.886607  40.164225  12.374905
Tb   28.396293 -19.626868  16.053448
Ta   -9.127723 -17.013986  -4.877309
Gd  -18.079198   5.111908 -20.088886
Eu   -9.343598  -7.871117 -20.029092
Ir   10.064421   6.797701   2.577796
Ba  -14.542123  -0.278940  19.152464
Sm   23.531707  20.235550 -27.723186
Ce  -17.730817  25.032258  -7.867934
N    11.077718  22.350819 -35.364862
Tm   13.544804  22.732776  -1.613585
Sc    6.911872  10.441348  11.910936
Rh   41.475601   3.926731  -6.091537
O    36.687204  16.382332  19.682210
Y   -35.875507 -14.049741 -11.665016
Hg   -6.411292 -20.902502  35.534632
Ta   25.825977   7.438885 -25.527270
Ir   21.800264   4.916297 -21.418233
Ho    8.343768 -19.727325 -20.644430
Kr   -4.133998  -9.122831  -2.697179
Rb  -25.843144 -26.757629 -19.305703
Er   -2.641619  26.739200  -9.153910
Y    32.025852  -7.773034  -9.862671
Ba   -6.298457  14.086224  17.471962
Cu   16.381849  33.076681   5.460914
Co   31.615855  16.672964  -2.101020
Ni    4.701807  19.070644 -13.649159
F   -21.486459  13.053658  -8.860071
Nb  -12.157158   7.884418  24.397466
He   -5.751507  -0.359642 -41.422874
F   -25.406225  25.650905  19.864950
La   -3.823952  -4.752142  21.343625
Ti   34.912873   0.202985   3.501638
K    11.987730  -5.538790  39.874415
Pr  -14.439342   9.106405 -29.833483
At  -27.849573  26.520710   7.630866
Po  -10.072250 -42.186648 -12.689323
Cd  -38.496195 -14.041954   5.268646
Rb  -17.598883  13.937066  -5.419907
Tm  -32.106359 -23.297409  -4.066898
Ge   -4.648101   3.077553 -15.715283
Pm   24.128675   5.082443 -35.420871
Mo   23.845657  26.133969  -2.804907
Co    6.310874  23.980317  36.153521
I   -10.973683  24.394948 -19.366169
As   15.139017 -12.346312  28.920571
In  -22.993742  14.379230   2.701473
Zn   -6.004712  27.526447 -15.324649
Sr  -22.774710 -38.228453  -9.929574
Ir  -23.130897   5.503427   3.744873
Kr    3.066846  -5.675386  -9.433892
Ne    0.061016  33.051569  29.346342
Hf   -6.356940  -7.803744  11.814377
Cl    0.469387 -13.742119  37.755389
Cu    0.187111 -17.572664   6.996489
Eu   19.890473 -26.873148  -9.037799
Sr   -4.253985 -11.839080  13.866189
Ca  -25.800671 -12.722843  31.037788
W     2.324015  24.156229 -37.679323
B   -10.408142 -33.230357 -17.808765
O    -6.532660  18.148724  41.047434
Bi  -12.739382 -18.648843  -9.323701
Sm  -17.898677  -0.664945  18.852289
Cu   25.985913 -12.064709 -16.872734
In  -36.753308  22.643095 -11.914751
K    -7.762478 -16.268453 -38.378209
Ti  -14.576870  -1.970604  29.495122
Ta  -13.912410  -6.728546   4.590096
O     7.244721  31.498892  15.703507
Tb   -7.727446  12.527051   2.479246
N   -22.202759  20.058195 -16.015446
Ge  -22.487891  -9.303966 -37.789663
Zr   19.382503   3.229237  23.510027
N   -26.685284  25.409160   7.410816
Ne    3.300625 -29.821965  10.413039
Xe   36.435879 -11.866386 -11.685832
K     9.474768   5.600040 -25.327191
Bi  -26.520783  30.548680   7.520342
Pt   16.962824   0.767052  30.655225
Si  -15.408722 -12.508609   2.817819
Ta   17.106816   8.734555  12.454370
Sr   34.651899 -19.060110   2.301952
K    11.726524 -16.168350  26.826116
Ar   22.740461  -5.106560   4.358356
Ti    2.285979  19.652682   4.395108
Ir   16.895039   7.302988  -5.721381
Ag   38.469058   4.912401  -5.691336
Si   -2.267711 -16.368984 -35.416873
B   -16.819090  -1.819747 -14.188226
Ru    8.922748  18.965585  17.680392
Nb   13.329899  21.901196  14.987519
Al  -31.619927 -17.065061  13.356572
Rb   34.192053 -27.101738  -9.916445
Ga  -20.158925 -23.940022  32.646216
Br   22.699937  18.818665   3.715906
Gd  -25.751239  13.591143  18.721032
Rb  -37.678769   2.703482 -22.840553
I     4.889862  -5.195126  21.172053
Cu    4.682429   8.197284 -44.340808
Os   10.011269  41.750403  -9.753924
Pr   -8.833400  -8.073908  -1.146081
Nb   11.608722  -7.016490 -16.189500
Ti   -6.507346  -9.550123  15.866858
Ge   -2.225696 -17.240798 -17.950067
Sr   26.359561   7.599049 -24.388278
Kr   -1.778744   9.077087  -3.961369
Zn   18.592320   4.742330  40.249456
W     1.710094  -6.285603 -17.376715
C   -20.722872  -1.757231  34.459554
Yb  -14.099481 -19.369449  17.863896
C   -19.805495   0.670172   7.950494
Eu  -35.652961   7.565047  20.722028
B     9.410308  22.454482  -0.957558
Yb   20.401072 -14.361045  27.170651
Nb   31.040142 -22.687281 -10.829643
Ar  -40.155499  13.718278  -8.304130
Rh   -2.619369   3.950880  39.822872
Os    7.765499   0.408038 -22.769091
Ta   10.555005 -27.857518  -7.002455
Pr  -37.825330  -8.354265  23.910755
Sr    6.753043 -21.132904   9.365747
Tb  -15.533339   8.624841  30.911548
Cd    7.655344 -27.802657  34.685030
Ce    5.607738 -25.874099  31.126810
Se    5.860804  40.512847 -17.335368
Te    5.017348 -28.650170  18.103147
Y    -7.870517  18.490724 -29.180779
Te   20.673913  14.364885  33.099601
W   -41.341724   3.838719 -12.623175
Er   27.549598 -12.852164  -5.980118
Ar  -13.633563 -18.010217  -0.838165
Ho   -7.268303   1.821364  27.006588
Lu  -30.902166  26.281029  10.191733
Sc    0.457741  27.203279  17.265872
Pr   41.877344   4.780611  -3.308625
Cu   22.137790  15.049026   9.576728
Si   11.776649 -33.909460  26.736992
In   25.406316   4.063897 -36.422845
Tl  -13.148851 -13.824382  31.315258
Ce  -43.458008  -3.288658  -0.787816
Mo  -14.322641  18.184335 -28.923224
Tl  -17.458816   4.893145   9.021550
Tb   -2.343619  -5.176757 -11.632770
Sr  -20.036664 -12.111431  14.488106
Fe  -29.969666  27.896074  20.025048
Mg   14.750577   9.341494   1.423784
Be    9.023865  -6.237956 -39.621510
In   23.446423 -26.756355 -12.371270
Bi  -19.916916 -39.074415  10.198279
Te   -0.205177  32.718734  15.128614
Xe    6.161434 -31.090287 -20.360485
Ag   39.495070  -3.886317  -2.707093
Ca  -38.921966  -7.706564  21.937252
Cs   13.720111 -31.792102 -17.281272
Dy  -14.223030  20.455886  -8.773659
Tl  -15.463715  31.400476   7.928355
Rn  -21.056185 -14.682496 -33.503285
I   -38.885416 -16.253826  -0.241642
Gd  -15.523317   2.766465  10.393171
Rn  -28.335458 -15.941788   2.759206
N    -1.417485  26.673909  -6.033965
Nb   16.517074  23.984179  10.487774
S     3.357836  18.102882 -41.138619
K    13.807812  31.327445  14.740773
Pm   39.969115   4.775069 -20.641111
Bi   29.468692  26.427823   7.592294
Mn   -0.745069 -17.062083 -19.985794
Tb  -25.700634 -17.732930 -11.137573
Rb  -15.633715 -11.445601  12.807733
Pm  -18.117531  -3.602158 -28.416594
Pm   22.751999  10.130959 -15.309569
Pt    2.491612  10.848364 -19.272973
Co   12.913048  13.986058   4.866610
Re   36.647178 -10.029103 -20.705148
Br   -6.613939 -33.274052  14.780912
I    11.939005 -27.486249 -17.536933
Ca   19.113768  15.269154   3.548757
Rb  -19.730910  20.451544 -20.799142
Tc  -16.585328  -1.855250   7.814643
Ar  -15.187659   7.723795  24.687056
Eu   15.881248  -0.820110  25.696307
C   -22.063095  -1.856646  30.545831
Mg   19.619729  31.838519   4.773556
Se  -26.480220  -1.376157  -2.173697
Ti   -9.389575 -23.440373  26.548008
Mn   -6.454635 -16.668227  18.994006
Dy   -3.459558  -6.499406 -34.935113
Zn   -9.475630 -12.233407 -32.884015
Ho  -21.100214  -1.999777 -21.096405
Kr  -15.934256 -37.012459 -10.464492
Au   17.940546  18.671870 -18.132774
Cl   39.929023  -4.076486  -6.010809
Cr   16.131181  23.752842  35.545710
Rn  -33.445199  -7.036680  -0.736018
N   -11.960031  -8.276553  -6.658644
Cs  -38.546532  -4.171626   1.875744
Ne  -21.530887  25.631401  18.744881
Ce  -15.495516 -19.539569  18.396794
Er  -37.785747  -3.170794  12.090268
Sn   -0.427553  19.114525  -6.456382
Si  -13.666765 -12.167713  -5.354699
Ba   27.625602  23.124279   8.621209
S   -35.737478  19.375182 -18.715791
Nb  -13.030726  43.085635  -6.365043
K   -21.560138  13.949960 -23.093367
Sn    9.852177 -13.773870 -13.374930
Ru  -19.757945 -22.382478  -7.587112
Hf   15.883924  39.941686  -0.107053
Cu   14.288869  19.998281  34.085721
Cd   32.482872  13.172763 -17.774793
Li  -29.015532   3.851334 -14.593758
Pr  -13.072946 -22.137584  28.580115
At   17.713179 -12.671738 -25.065179
Si   14.935073 -15.534882 -20.623610
N   -19.893683 -25.271723  -4.824003
Ta   15.994951 -23.294001 -23.296787
W    14.145863   1.283988  18.943875
Eu   -1.645209  -4.609714 -39.363515
Hg   23.792846  19.538741  19.018485
Pb   21.160047  25.972775 -22.573690
Ce   -1.145200  -1.802527  27.212480
Mo   -1.440879  28.083565 -18.166058
Be   -1.812736  -0.081900   5.542134
Er  -14.023568  26.857103  16.992868
B   -31.253100 -21.968135  -1.302688
C   -22.609427  -9.008801  -7.059283
F   -29.265033 -10.808300   6.380720
Tb    4.366745  -0.167364  43.796422
Tb   14.991593  39.484225  -3.899190
Se   -9.230739  -3.390596  19.588414
Cl  -24.912610  14.793573  -2.511732
Re   -5.618673   0.842055  27.631610
La   13.938969 -29.576716 -30.307575
Ga   39.247504  17.485752  12.947454
Lu   10.418249   0.946265 -13.543563
Al   32.918629  23.080535  -7.415402
Cs   25.961178  12.935467  22.113221
Si   -7.711518  16.758283 -36.324535
K    -8.064759 -26.650654 -22.139653
Tl    0.386937 -29.796943 -16.287548
Mg   -1.218159 -24.348042  30.680700
Bi    5.271506   4.815462 -13.144241
Ti   12.484294 -23.492205 -27.178387
Ba  -10.657509  15.234106  -4.770740
Xe   -6.153986 -20.301218   5.153688
Rb    3.937692  19.207210  18.164094
He  -19.388493 -26.014518  26.312025
Ho  -33.079092  23.378893  14.371599
Te    0.331614   6.599914  44.655812
Ho  -23.533861 -24.254823 -19.158654
Sc   11.778788 -26.183108 -26.257996
Tb   13.371492  23.342014   6.609664
Tl    8.266976   5.440353  40.249690
Hg  -22.628886   2.707714  -6.191620
O     5.072023   1.806169  -9.264313
Yb    2.152322  38.143735 -14.171400
Pr  -33.587493 -25.912345  -0.490933
Er  -32.777874  -4.861822 -16.396748
Na  -40.338085   4.196894  18.789325
Re  -20.349046  -6.944567 -35.643416
Rh   24.492035  22.578232  24.331177
Pm    1.198199  26.787706  27.819168
Lu    4.693738 -16.001823  22.018578
Xe    6.402729  27.129120  28.016381
Pm  -24.490117   2.652012 -21.925053
Cr  -14.193710  17.387960  13.078725
Cu   10.315943  -0.040902 -39.348784
Br  -19.915461  14.931059  22.359338
H   -11.069652  27.993971  13.650991
Dy   11.577722 -18.522976 -26.672346
At  -11.423380  -4.811576 -23.753705
Ta   21.297567  12.424386   8.819988
Mg   24.668990 -23.627266 -13.401644
Pr   16.847681   9.185014 -26.015903
Br   33.058176   2.008275   7.825265
Pr    8.192024  29.049219  13.646543
Bi  -41.789251  -1.557363  12.364503
Pd   15.409800  18.384678  22.263634
At  -39.601234   7.670534   3.364331
Yb  -16.749369   6.018107 -25.704098
Eu  -18.322100  13.425854   4.215257
Os   21.622728  11.428295 -38.549889
Pt    0.043980 -15.004299 -27.514416
Ge  -41.596073   0.247497 -14.338907
C   -16.201349 -26.687486  25.034564
Al   30.458809 -30.991964  -2.131770
Os  -21.387719 -19.979983  13.131700
Ta   18.076951  24.779035  25.087794
Ni  -19.372825  -9.805259 -26.179254
Zn    4.400289 -11.143338  24.662445
Cr    0.410650 -44.454031   6.248707
P     7.757308 -33.401289  -4.013420
Tc    8.507838  11.059682 -31.027489
Rb   -7.189221  17.855755 -30.856590
Mo  -15.215105  -3.352354 -39.345815
Rb   -4.814980 -19.714806 -30.516311
Ne   29.299376  -2.493230 -31.756117
Pm  -19.197361  -6.972010  10.583129
Bi  -20.114211 -17.955917 -30.888222
Dy  -16.876309 -28.631836  11.818767
Dy   24.210858   5.610808  33.837298
Ti   16.229955  -5.002642  13.612259
Hf   21.833054  31.277326  18.363792
Tc   26.085410 -11.074087  31.057616
Ba   -2.479370  32.392245  -6.690675
Pd  -15.694686  17.670069   4.941608
Hf   -5.584368  27.365897  -1.511057
Re   10.865588  19.421095 -12.635885
V     2.732803   5.606791  25.137616
Ne   -9.297846 -18.126036  33.633722
Pt  -27.763524   7.137162  20.298580
Hg   23.280677  -3.855726  20.786992
Rn   17.406526  -6.655521  16.382521
Dy   -5.107961 -18.968783  19.981115
Xe   18.830642 -22.097472 -10.404984
Bi   14.056260  21.697990  -1.892154
O     3.872802  26.408317  -7.823043
Ti   -8.545685   5.783099  16.581899
Rb    3.872802   2.936643 -42.101399
W   -16.386356  10.783086  27.545724
Os  -10.524430  20.243035 -25.876050
S    -9.561222 -21.431246  30.196741
Mg  -20.747412  -8.108728  29.107234
Ge   10.155154 -33.077647  21.243275
Al   -7.161017  32.095936  18.014322
Pd  -10.329337  32.563573  -2.307567
Ce    0.421749 -18.534721  27.674073
As  -26.540832  21.356854  -8.541965
Mg  -35.514420  23.446240  12.017786
Cu  -18.616678  24.283879 -13.005724
Pm  -13.480952  18.120881 -10.768012
Ti   -3.455656  -2.847760  15.157517
Ba   11.112375 -29.743368   8.401989
Re  -29.235386  -6.619991  -2.727887
B    21.372839 -10.597271   5.120477
Pm  -25.284692  29.425357   6.749072
Po   15.032061   7.255234  -6.003688
Mo  -21.729773  -4.104130  10.000939
Tc   35.705786   1.349288  12.649646
Ho   18.928057 -22.829219 -15.049975
Pb   -6.368463 -32.942052 -24.905628
K   -21.912744 -13.576014   3.091665
Ne   31.926435 -10.855344  10.125762
Cu   11.180334 -34.279475 -20.669979
In  -16.537672  -6.370969  37.201066
Ni   19.922393  10.689600  35.645196
Ba   -3.111351  44.042779   6.709263
Os   -6.505755  34.502387  25.827239
La  -15.498934  14.742497 -12.303684
K    29.084666 -17.158109   4.076937
Ba    4.799110  34.535398  24.809189
Yb  -35.732332   4.681820  20.948197
Cs   22.305884  15.581689 -31.885067
Dy    7.712155 -31.598248   7.483799
Dy    6.132882 -19.974947 -31.339415
Tc   26.487009 -14.628316 -28.919143
Sb    0.471048  -4.833608  23.229602
C    -6.830804 -41.804529 -11.823350
Ru    2.796746  31.466294  31.898866
Er  -12.780280 -14.588026  13.377102
Fe    2.975554  39.543498  -7.184326
Pb   15.179528  15.858788  -8.134351
B    19.142823 -29.338164   8.122182
O   -33.258732   2.969159 -11.729034
Cr  -38.575157   7.170270 -17.095024
Li   -4.304222 -33.326612  17.889187
Gd  -27.525733  23.108968 -23.258410
Re    7.918900  14.297944  13.049724
K   -22.224054   9.782834   8.569102
Rn   -3.023086  24.340303  11.446572
B   -22.591224  -9.909858  36.796648
Al    8.526492   4.452556 -23.041508
Ta   15.698680  -6.844785  22.770609
C   -30.554581   4.109199  22.463059
Mo   -3.480825 -15.091737 -31.908332
Pm  -24.973336  22.104548 -18.693890
Os    5.590415 -35.955684  10.465129
Pt  -44.747521   3.021630  -5.773413
Ir   17.628825 -31.842311  -9.716387
Fe  -23.123235  20.022737   3.646770
N    17.695525   6.019657  -4.324689
Ir  -12.793445  19.652583 -14.712572
Pb    5.796268  38.095647  -4.763280
O    -0.432015  12.645285  -9.292650
Ni    3.038816  22.242595  26.975285
Cd   18.051127  17.513747  23.845218
Ho    8.617857 -26.994785  -0.445587
Si   12.160818  16.369704  28.395515
Tl    7.942589 -19.781740  13.449654
Mg   -3.771983  18.907859 -15.219952
Eu  -31.430984  16.505192  25.171779
Ca   -1.170220   5.170323 -21.145092
Gd   -1.901934  38.693391  22.275654
C    15.927678  18.534565 -30.857415
Sr   14.675120 -19.938827  27.617251
Fe   33.242724   8.403469 -12.799720
Ba    6.111930 -39.330576  -2.381573
Ir    1.583728  -3.006113 -12.880467
Cu  -40.234214   2.231803 -19.473796
Au  -32.378031  21.605926  10.179566
Y   -28.207724  27.777927 -14.539297
Sr  -29.191020   5.129745  11.297851
Rb    4.996146  25.961892 -13.863614
Lu    7.714369   4.724760  36.201794
Te    4.363044  -1.194422 -39.989829
Pt    8.238362  -3.719192  27.291111
Cr  -15.429738   2.268703 -17.083468
Hg   -8.854260   6.024956   1.849739
Fe  -37.159187 -15.883847  -2.573564
Ar   22.332099  12.206377 -25.887803
Pb  -15.421777  -2.162254 -21.528700
Mn   21.959365  23.317006  18.648870
Ho   29.619643 -32.357554  11.403716
Kr  -15.734799  23.569496  31.030350
Er   -4.242032   4.059522 -19.730086
S    12.124899  23.384169 -21.317387
Re   -0.620648  -6.036322 -21.036690
Be    5.845426  29.076666  26.322148
Ni   29.785024  -0.878607 -33.146334
Hg    6.923576  -8.451177  33.382918
Cr   25.268562   7.045968  34.304326
Ce  -38.520013  11.644861  -6.663015
As  -15.542183  -0.273066 -30.777154
H   -27.819697  10.112748  -8.921657
Dy  -18.005569 -19.302277   4.784017
Zr   19.887994 -35.015361  -0.066108
Eu  -10.271112  44.099576   5.141189
Rb    4.503701  29.106923 -17.171400
Tb  -18.468211  25.210602   8.931361
La   27.862933 -23.717376  25.819917
N    19.571347  17.776673  37.052504
Yb   22.774370   0.014588  23.603642
Os   30.666754  -9.572658 -26.502205
Hf  -39.517024  -2.140249  18.578404
Ba   -7.816617  30.997415 -20.260291
Gd   -2.287784  26.650599  -9.983908
B   -17.803013  -3.232956 -29.423546
C     2.048592  36.243864  -9.906345
Cd  -22.303806   7.080228   5.284645
Ni  -21.394694  25.254840  21.269195
Co   -1.252495   1.557402 -37.369389
Tc  -12.898629  23.755290  30.699075
P   -15.511959  19.162846  16.331521
Os  -27.443148  -5.095504  34.919570
Ti    0.717427  -3.189955 -26.857030
W   -10.778103  21.891869  15.849873
Mn  -30.793038  11.876189   9.758143
Mn  -24.226934  10.162958  -0.698227
Mg  -22.917766 -25.541306 -15.236248
N    17.234224  37.518827  14.729058
Ir   -8.289774 -37.730451  23.741775
Zr   -9.444598  19.803503  -7.392410
Eu   18.006523  27.949144 -17.428193
Os   -7.095503  -9.273907  -7.592184
Ho   14.793388  -0.087300  38.498311
Xe    3.363306  36.509100  11.067720
Nb  -20.074108   8.711126  12.143141
H   -33.113308  -6.175101  21.996475
Ag  -29.263146   9.632404  -0.046256
Al    8.087009  12.296454   1.622917
C    -8.256951 -24.804582   8.652236
Ag    0.733064  23.943740  17.052316
Rh   -0.422228  37.021030   4.407993
Ar  -37.546616   3.017119 -13.177111
Te  -24.134223  12.719566 -10.605043
Pd  -11.453348  -1.364676  21.123655
Ce    6.837840  15.556878 -23.733534
F     0.241205   1.462947  45.364731
N    12.622349  12.741243  21.573964
Al  -38.802536  11.983738  -3.055503
Os  -12.340336 -26.437586 -10.613850
B    43.083065  -7.121183   8.688814
Yb  -32.704429  14.105363   1.942128
Hg   37.471931  10.085566   3.800236
Pt  -35.474623 -20.295388 -19.146477
Au  -18.918125  -8.788288 -10.192210
Tb  -19.891275  -7.300919 -10.242037
Rh   34.047536   9.236190   4.759633
Hf  -10.075867   6.483575 -41.518137
Ru  -25.059452  -8.962278 -16.634353
Mo    4.326055 -18.974261 -19.146403
Ir  -29.114326  -8.598684 -11.668455
Ag  -26.015561   2.530141  -2.671264
V   -24.116656  27.360092   6.354014
At   13.146543 -18.408937  29.188131
S     8.683951  35.962987   1.420157
Pt  -12.233848   1.654635  -6.982805
W    36.430952  -5.497398  -9.691541
B   -16.150590  -2.004332   0.589869
Cs   -3.897408 -11.673894 -38.658128
Sc    7.754701 -28.748226 -12.040524
Pm   -6.927950  -5.601449 -39.335101
Tc  -21.410121  -1.836969   4.192642
Ag   11.821926 -43.927653   3.177537
Sc   -6.232843  10.969085 -36.266863
C   -20.902936  -1.227200 -19.253620
Mn  -21.674815 -32.797284 -19.516780
Pb   -2.768361 -39.809230   1.165956
Pm    1.930018   5.874513   0.803041
Ge    0.262810  14.411680  38.934077
V    -9.243354 -22.218619 -25.041436
Zr   26.382693  -5.750837 -17.486427
Pd  -17.935435   9.757617 -35.012624
Hf   18.159845 -22.802560 -34.119208
Ru    7.763641  18.671100 -14.410365
Rb   23.490489 -22.223504  -7.370539
Ag   -9.417433   3.108464  10.993761
Gd   -1.660961  34.670775  -3.959497
W     8.054238  20.380126  31.872402
Ta   -6.638066 -36.611217 -15.842749
N   -20.580442 -13.809598   2.362873
Cl   43.004654  11.014465   0.977849
In    7.741851 -37.522434   8.572084
Ne  -13.053077  12.954544  12.981285
Ce  -32.801275 -18.321156  -3.369533
Zr  -24.268800  -6.034626  34.970769
At    5.914354  29.138405  17.554394
W    15.849305 -22.654235 -36.324575
Re   -1.298823   4.366658  12.603893
Ru  -16.195560 -32.846382  26.154734
Gd  -45.068410  -1.299565  -1.937227
Sc   18.589427  27.924937  28.542568
Xe    4.331931 -16.607659 -29.013760
Sn   18.988974 -20.510436  22.787392
P   -14.758511  31.375454 -11.678109
Rh  -23.706165  -6.550412  37.791962
W    16.780388  -0.148762  14.424436
Ir  -28.645073   1.783829   4.655708
Cu   40.633885  -4.483920  -9.878497
Ti   13.224398 -28.275364  24.631503
Ni  -15.715575 -24.793495 -25.221674
Eu  -13.215350 -24.898901 -12.688958
Tb   17.700624  25.474031   4.629125
Tm   12.551830   1.490893  11.716997
F   -36.406121   1.868652  12.355848
Hf  -25.352460  -2.386115   0.570260
Li  -18.107547 -16.887076  12.475483
Nd   42.769359   8.958392  -5.069531
V     4.652257   5.242514   9.699557
As   -7.407427  30.897308 -12.846207
As   -3.120591  11.306590 -25.098628
P   -21.691881  27.089707  -8.298770
Sb  -29.302729  -6.578301   3.150556
Dy    7.165928  -4.560389  21.636989
Ce  -16.558774  15.387339 -31.625268
O    16.816620  36.405515  18.486681
Ru  -23.580816 -10.067297   1.788718
Pd   30.513044 -12.357132   3.459367
Zn   14.059320 -38.999078 -16.207935
Hg   15.757360  12.955101  13.882447
Sm   34.161358 -13.519759  10.011346
Cd  -37.606388  14.529236   7.347915
Hf   -0.501997  30.521681   2.452693
Gd   -2.098243 -20.055823 -15.663357
Os    5.728263  -6.623872 -30.957434
Sc  -15.306782  31.642821  12.022069
Pb   30.398550   0.231591  21.587112
O   -15.404300  20.702667 -18.015854
Ba   -8.734543  29.768366   2.080112
N   -28.055063   7.226638 -32.041585
At   39.509990 -20.052282   1.203332
I    -7.908487   7.667261   8.997843
H   -27.626390  -2.086071 -23.521777
B    -4.136641  38.156189  20.845956
Yb   11.185969 -20.361313  19.362790
Yb   28.941401  15.234931  23.913449
Dy  -22.573077 -35.174348   6.274972
Ru   -2.346783   6.584009  27.465566
I    17.039675 -29.463123  -5.865559
Rh   -6.418903  11.697522  36.096776
Br  -21.945244 -26.803480   3.934878
Re    1.495665 -20.506995 -17.542921
Ta   -0.982490  22.008341  39.306490
Pm   21.834978  30.330887   7.315998
Rn   28.974086  24.934572  20.039589
Tb   -3.148193  25.358013 -36.488235
Pm   36.969337  13.211574  -8.658899
Sb  -12.217715 -33.217601  16.551022
Pd   -8.394715   7.553002 -41.817638
Eu   24.500014 -15.946969 -22.637213
H   -35.067072 -13.100137  18.103896
P    31.549495   1.115867   0.499606
At    4.457667  23.753269  38.190834
W    24.503040 -25.063364 -17.926940
Cr  -20.027312  -7.311057 -32.629886
Pr   16.207240   5.855218  15.457909
Pd   -0.927842  14.523995  10.774932
Ta    0.299841  44.717599   7.460442
C   -16.551386  22.858178  17.382897
He  -20.186758  27.080174  27.585889
Ta  -12.816803  20.272496  22.910092
Ta   -0.194825 -23.809021  -7.221353
Hf   41.116152 -15.027214 -11.038972
Tm   -8.550633 -18.747247 -17.772938
N    10.605445 -10.289774   0.077320
In   19.564847   0.649417  16.108561
N    35.269018   6.999469  -6.895066
Rn   29.260471   9.915379  21.101556
C    -7.765003 -41.935061 -10.563912
Mo    2.136205  16.859338   5.013173
Po    6.826172  21.306830  18.009752
Tb  -20.123916   4.934603   9.314643
Na  -29.531712  -6.118152  25.818595
Te    8.889230   0.225894  38.707886
Po   36.120640 -22.533681 -16.625273
Ce    0.408360  26.265728 -37.326960
Nb  -10.113796  11.647518  14.201651
Bi  -20.475521 -15.867504 -33.161705
Be    5.810801   4.545276  38.446565
Ce  -10.645498 -19.504214  20.437130
Ti  -18.700764 -10.636323  -4.758222
Bi  -38.530681  17.789323 -15.390390
In    9.088968   0.524476 -14.342143
Mg    6.408704   7.905103 -25.382102
Hf  -16.807030 -25.424677  -6.678350
Ag   11.003913   3.401091  -1.871361
Zn   -5.075715  -6.857815  44.726426
Zn  -32.312219  28.995325   3.587696
Rn   -9.750325   3.504678 -22.801570
V    24.663896  -6.794203 -24.002328
Pm    4.456627 -26.604848  13.578026
Rh    2.373482 -25.869892 -37.207972
Rh    2.520413  35.659558 -12.207398
Br  -30.998049 -13.915675   3.083121
I    23.351986 -18.480237 -31.950431
Rn   -7.295300  22.688206   6.613696
V     4.467700   4.818860 -38.319953
Xe    7.903975   0.429170 -33.185263
Rh   12.608343 -15.605885  32.537691
Tc  -14.548468 -32.148374 -25.302491
O   -14.042740 -38.311827  11.942305
Nb   -1.795344 -28.991065   6.600802
Ta  -16.853355 -40.723748   1.921457
Eu  -10.299154 -24.048306  -8.813792
W    18.410313   0.886331   7.394306
Si   40.217994 -12.866066  -7.660023
Se    9.913599  21.822814   3.239513
Al   19.445052  18.654679  35.347148
I   -31.885126  10.828284  16.976279
Ar   11.463154 -28.827504  19.371091
W   -13.031366 -18.742451  -5.467250
C     8.793101  23.025260 -23.340818
Hg   13.393204  -1.813806  11.198666
In   -5.649242 -20.950402  21.688573
Te   10.919562  38.191425 -18.325085
Co   19.309902  12.846039   0.651547
Be  -40.544294  -0.480438  -4.069301
P    -6.346996  15.381963  42.006362
W     8.842980  29.855428 -16.498602
In  -19.222026  17.742176 -17.043581
Ca   12.483593  31.636027  23.416198
Ar   25.116017 -31.331075 -21.066373
Sc   -5.476915   6.840303  20.100961
Be   -5.139397 -38.616810   4.480696
Au   -8.402039   3.276679  27.335103
Dy    9.304108  30.528616 -26.747474
As   29.965614   5.081582  19.764009
Tl  -19.338308 -16.355326  -5.397083
Sm   20.472334  25.613334 -14.043971
O    21.673982 -11.339892   5.337962
As   39.857096  15.562372   5.675744
Ge  -21.276080  27.116680  23.352237
In   38.009440  13.374674  -4.035923
Sc    3.869661  41.280889   2.888529
Re   -4.532157  15.196811 -36.959531
Te    7.313838 -33.629867  21.006150
Tc  -20.108547  -5.135117  -3.168759
Sm   37.907089  18.970556  10.441813
Eu  -20.093060   2.744216 -27.728268
Te  -15.709379  -6.908659   1.582812
Ag  -27.917190   5.700390  -9.813819
Rb  -15.501367 -23.504402  19.442259
Gd  -42.944053 -11.983033  -0.570771
Er    0.252167 -13.760635 -36.338746
O    24.214823 -31.838720 -21.622822
Bi  -14.757164  29.270515  29.317448
Na  -38.361970   2.379603  20.884325
H    37.552478  -9.919769 -15.437478
Al  -32.518022 -28.577138  10.328566
Be  -10.869320   0.884209 -33.557482
Ge  -19.300507  16.507455  32.517323
Nb  -12.377459  20.660689  11.342821
Ga   -9.840251  -4.256736  24.316281
Ne  -19.451223  35.563735 -13.264696
Se  -10.207035  27.787461 -25.409664
O    10.728187 -14.013068  31.319129
Sn   38.023546 -11.649671  -7.185861
Cr   -1.934218  36.890376 -11.177203
Ti   20.027856 -13.916053  -1.092481
Ir  -14.361170   1.957448  30.944298
Ba    6.985769  -5.392178 -23.245075
Ir   32.789327  19.700299  10.363475
Bi   -2.008574  26.287660 -12.682697
Fe   -4.845126  15.448556 -10.102157
O     0.366206  -7.813622 -32.870419
Mo   22.635592 -23.100299 -31.246421
F    14.780628  12.024741 -33.704143
Ta   27.780029  19.773027  30.405988
V    25.677133 -27.684875  17.372334
Cu  -31.866716  -5.003682 -13.366082
Si   10.090409  -4.410545 -30.461772
Ni   36.078585 -14.884520 -21.757892
Zr  -25.466482   8.751390  12.485281
Pm   -1.193480  15.840884 -32.932176
Ga   32.279378   8.311673 -18.629160
Ru   -7.783998  40.700152   9.155781
Y    14.297534 -16.410245 -11.552528
Y   -18.206189  28.476115  -6.174250
Mo   23.047454   4.790649 -38.595872
Hg   -9.697220  -3.475213 -26.467427
Ca  -12.121486 -40.179690  -9.182327
P   -24.087768  -8.297687   9.674960
Sc   -5.023264 -11.502138  27.900298
Tl   26.070299  31.632262  13.611815
Hg    2.097877  13.225879  18.895158
Po   33.490299 -28.006830  -9.163629
Zr  -34.622739  15.439371  23.810568
Re   19.969302 -24.013897 -21.836843
Gd   17.727335  10.275809 -11.493354
Ce   -3.522744  42.473609  -9.563912
C   -18.014548 -28.245339  27.169118
Co  -38.229021 -21.321848  -8.830582
Ti   -4.698319 -39.689212  15.444879
Ge   23.822158 -13.218139  16.810301
Hg   14.156211  26.237878 -19.514064
Ar   13.979975   8.599827  17.571257
Ho   19.801690  32.291000 -19.938754
Y   -13.788621 -19.231220  21.152037
Sr  -14.991379   8.000428  28.515515
Au   -3.874793 -31.296236  16.536410
Dy  -14.339957  14.434373  -4.981731
I   -19.258236  -1.863633 -29.969250
Br  -36.932532  10.309729  12.083101
K     4.662080 -44.307243   0.134009
Yb    2.092951   9.534139  -6.146381
Eu  -42.760770   0.467928  -1.054555
Kr   29.727802   7.408304   0.545091
Po   25.900009  11.550582 -14.941522
F   -29.027860  14.004950 -12.105808
Mn    7.552842  30.883463  -3.331822
In   -8.383710 -12.573715  -6.019778
O     4.387375 -17.487421  24.909138
Ag   39.339634  -6.756393  14.806286
Pr   29.964954   7.806006 -12.205925
Pt   -7.628315  -9.606781 -16.133915
Ru   17.469597  12.987209   7.530633
Be    8.068472   7.929511  28.415411
Si  -20.381296  14.731440  26.725799
At  -13.575502  20.141949 -18.671675
Mn  -18.677227 -37.664957   4.250277
Dy   -4.076507  35.472392 -25.308101
Co   24.297600  24.795333 -17.381426
Ge    1.399849 -18.405026  23.827718
Au   -9.927057  18.504186  32.297753
Yb  -15.099135   7.576376  15.909367
Zr   -1.585376  36.060950  -1.951112
Zn   17.547348 -15.623979 -19.374365
Ir   -9.479083  -0.357087 -13.390354
H    10.786844  15.549844 -21.215076
Cd  -10.479273  10.354529 -26.499138
F    40.108542   5.926031 -16.941230
Tc   -3.500368 -16.410613  -3.144288
Hf   32.709286  -3.711830  24.204826
Cd   37.356014 -12.822333   4.005957
H    -3.480351 -22.287467  28.665944
F    -6.590469   6.403020  16.589164
Tb  -36.251659 -23.515043   7.120252
Pr   -6.186023   5.575255 -13.771444
Cr  -34.046581  -1.700203 -21.946574
W     0.762918  33.082289  -0.373738
Co   30.520110  -7.710107 -19.040692
As  -25.979624  16.585766 -26.027119
Al   14.175693 -22.011595  22.199571
Yb   30.092686 -28.348269   9.387116
Re  -18.616196  -2.268651  23.070791
Sn   23.120525   9.244898  19.897551
Ce   -9.032722 -24.406068   8.536787
H   -37.845750  -6.736573 -18.398093
P   -17.177159  21.005841 -17.195419
Zn   28.001238  13.736978 -21.016555
Ag   18.804607  22.659229  21.610672
Ba   36.745283   0.094677  -8.349932
Er  -17.500219  19.175750  13.462986
Se   16.604056   5.914675 -28.145137
Cs  -12.153474 -32.003468  15.470901
Cu  -29.696861  15.531723   9.395889
Os   -8.735207 -16.968387 -33.112507
Pr  -23.961638 -23.261873 -31.202460
Nd  -38.637789 -15.875450   4.054142
Mn    5.668676  -8.773336  11.207992
Rn   16.810536  -9.505422 -36.985747
Cu   26.331811  15.723816 -32.447571
Ge   25.703665   1.743353  21.881261
Sr   17.159956  21.502286  28.814814
Ce  -16.983183 -14.111436  13.889760
Br   -6.961968 -22.593388  32.961707
Ta  -21.764585  32.978746   6.393967
Ru  -23.702569  29.037283 -23.843759
B    -8.326422  -7.794896 -43.035138
Cr    4.212633 -25.602963  19.213259
Ru   32.236258 -14.831298 -18.828422
Ho   17.228243   3.885595   7.266627
Pb  -27.918646 -29.645959  15.706233
Pr   -5.550136  31.597009 -13.021897
Rh  -18.345031  10.104377 -23.947586
Os  -29.847269 -27.237574 -11.782702
Nb   29.643430 -14.810886 -26.179877
Li   11.896885  14.100877 -20.749311
W   -44.879763  -2.015321  -7.133834
Na   36.410931   4.904054  25.428594
Co    7.115618   3.912517 -26.742477
Ag    0.428848  10.823228 -24.321447
S   -21.936617  11.285286  16.866622
Gd   -4.579497   7.027451   2.634389
S    18.656317  18.229139 -35.858450
Rb  -22.755496 -25.853365 -17.389905
Co   32.111791  -3.829345  26.492771
S   -29.940171  18.011884   4.378393
Bi   24.075664 -14.943544 -27.565585
In  -17.457549  20.174525   0.003564
Cr  -12.060718  23.980974  -7.879211
Re  -31.684992 -20.700134   6.699868
Mn   13.043177 -23.109186  16.003898
Br   -7.625063   1.410743 -29.040577
La  -30.315440  -2.642455  27.149315
Sc  -24.309529   6.557824  22.513097
Pm   32.112998  -6.865148 -17.219539
Pd   22.460879  15.443204 -26.088397
Cu  -23.457360   0.508408  18.249101
Ge  -35.338509   3.129536   1.456773
S   -35.531159 -18.441661  14.406768
Os    6.434735  14.136597   7.366736
Fe  -31.376382   6.483410   7.758468
Zr   -0.542051  -7.314547  42.733681
Se   -9.608008  -8.780230  -6.915139
Kr  -15.753103  18.079780 -22.435232
Cl   -3.372531   9.952674  27.471951
Na  -36.696869   7.750961  -8.981368
Ge   -1.561475 -16.254021   5.012051
Rn   10.489882  -7.240974 -32.958741
Zn  -29.580515   0.473018   3.542204
Ca   21.024522  -0.020768 -34.608352
Nd   19.907363 -15.316187   5.169527
Zn  -29.172919 -13.710932 -21.615286
Sc    7.349150   2.093770 -10.979168
O   -24.391940 -18.642437  17.688697
Kr    7.397466  25.749317   0.530434
O    16.664174 -40.055070   5.342403
H   -15.218655 -23.737078   5.229610
Tc  -19.628288   7.371012 -32.336060
Os  -10.086949 -23.616901  29.237048
K     5.934505  38.243630  24.022253
Kr   17.756695  19.297888  34.367225
Na    1.596091  33.039434  28.220293
Os   33.983706 -20.850037 -17.243580
Rn   -4.381672   8.479166  -4.790729
Gd    6.159347 -11.029106  42.630397
Ir   -9.572324   7.236504 -42.903754
Os   -4.478774  16.222662 -33.416125
Ta  -19.440781 -34.066037  22.880180
Ca   13.806710 -19.090587   0.699862
He  -13.657922 -20.407442 -24.125245
Kr  -22.767073  24.223589  -6.381280
Fe   22.600981 -28.234019  -1.686589
Ga   28.816429 -26.533214 -10.633075
Pm  -13.164806 -27.628676  28.352030
S     8.760949 -13.593205  10.742548
Ho    3.860334  -3.295591  -5.219136
Hg   -7.777951  19.478651  40.154306
Ti   13.785651 -15.636318   3.632427
La    4.307646  24.175622 -25.196948
Bi  -20.972305  15.947200  -0.347980
Tc   10.729276 -13.598604  -3.170985
F    23.579937 -18.511289  17.442163
Tc    6.585027  29.122418   6.536836
Ce  -21.529920   6.718126  12.171968
K    -8.822359 -22.012807  13.673991
Na    3.448341 -15.381266  39.276039
In  -17.225978  -0.939565 -12.627351
Mo    8.715362 -30.724494  25.286909
Ge  -24.707908 -16.800195  29.333267
Al  -20.118371  22.115802  10.969307
Cu   -1.361158 -37.696409  -2.822258
Mo   14.485893  28.464815 -18.479232
Be  -35.767401 -10.712965 -14.326140
Bi   41.084324 -13.022548 -13.516562
Ag   16.276525  20.669303  -6.726670
Hg  -24.137781  -1.970264 -28.639087
Sn  -18.795573   6.517095  12.001733
Sr  -37.476265   1.109092 -25.760319
Ca  -30.215714   3.065157  -5.315168
Br  -10.575818  -7.756415  28.472156
Sn   16.822109  19.702841   8.382914
Be  -27.968485  -2.379795  -8.830556
Ge  -34.021163 -29.578500   5.996410
Se  -20.353101  -2.925952 -37.198783
Cs    1.504224 -16.507459  14.299356
Dy   29.336925  -6.439899   8.370575
C    -1.817462  35.161319  20.178202
Ca   23.550855 -25.548945 -23.590895
Se  -18.906156  32.578167  16.274782
C   -31.393458  25.191629   3.579511
As  -19.117476  18.574463 -17.823690
K    13.772693  23.420235  25.066789
Bi  -26.176905  26.499495  21.804485
Te   14.161557  39.786876   1.831503
Te   -8.255359  40.403542 -12.071783
Kr   11.479453 -30.620275  13.159504
I    14.715786 -29.854401   3.824507
Pb  -14.137173  -1.431945  -9.183364
Bi    7.232923 -43.079383   0.438709
Ti  -10.044869 -34.090700  20.351383
Lu   -9.076643  20.497567   2.295427
Bi   12.254477 -22.406746 -18.973140
Hg   22.505505 -26.392946  27.628610
Pr  -13.710488 -17.557901  20.249796
Sr  -35.655036  11.441455   7.989337
Te   10.284236 -40.635493 -18.059432
Cd  -11.496906  38.293270  -1.496374
Ag   -1.622324 -23.197997 -21.314937
W    36.730452   5.027512  -9.438094
Fe   14.837665  -2.054681  39.226091
H   -21.138000   3.962684  30.331337
Ta   29.564875 -23.071693 -19.057260
As   -3.696011 -30.039886   4.321348
Nd   38.757262  16.462830 -16.127293
Mo  -38.799128  10.032949   2.178152
Na    3.430582 -17.841433  32.378609
Dy  -33.055386  20.238763   5.923417
Se  -38.994504   7.549511  -8.017990
Zr   24.241861  29.207731 -17.209918
Tc  -34.909439 -15.195853 -19.683701
Mg  -32.123549  17.489990  17.299506
Te  -13.510016  14.959045  -2.999069
Se  -11.428801   5.181662  26.313263
Hg  -26.159894  25.440014  12.500608
Tc  -21.447858  28.505557   9.618625
Eu   10.664959  12.503474 -34.803804
Rh  -20.452823  32.889633  -9.967109
Tc   33.391847  23.414570   3.260378
Ho    0.546028 -19.112652 -22.890081
Ar  -32.640055 -11.393314  11.439394
B    19.330840  27.315517 -15.137431
Xe   26.457059  24.306996  15.618888
Xe  -25.971538   2.475279   1.802243
La   12.596244 -31.535872  28.452265
Cs   26.938656 -24.756892 -25.500668
Ga   15.059318  28.601538 -23.926471
Ru   25.563859 -31.060798  -1.496784
C    13.313186 -23.539182 -31.032865
Tl   31.992658   2.696474  20.674036
Rb   15.588864 -15.125710  19.282048
Ar  -36.384014   8.490772   9.477760
Mo  -22.116313  -5.004518 -34.611346
B   -32.350456 -21.774375  17.514872
As   26.008442 -18.461281 -13.492598
S     9.626929   2.505716 -33.503862
Sm  -37.172489  -2.514803  23.529225
Bi   23.967574 -16.358961 -14.325630
Se   -7.126898   4.003887  15.960206
Ir  -18.930794  11.575487   8.973791
Ti    3.099153   4.586738  22.560765
F   -22.328478   9.821328 -38.146392
Re  -24.490804  29.446606  21.121998
Cd   24.055107 -22.345761  26.847200
He  -20.356097   9.823155 -28.911959
Ne   27.972542 -29.604063  13.230512
Bi   10.938448 -16.315662 -39.807854
Xe  -11.266346  12.964767  20.496374
Bi   12.790933  -3.474459  37.964383
Rn   12.107646  10.837583  40.006463
S    23.440424  29.509256  23.619824
Rn   33.816282  -5.452630 -21.453995
Mo  -25.948212 -25.520281   5.754488
Zr   -8.653354  -9.335484  24.737861
O     9.089011  34.490466   5.083415
Sm    2.500554  23.049894  13.428300
H    24.966444   2.465196  29.276405
Ge  -21.197994  17.947065  -8.983259
Pm    1.331615 -14.819786   4.643123
S    17.748819 -25.186597  32.882494
Kr   -8.886374 -17.109199  -0.457132
K    35.141068  22.803498 -10.762174
V     2.019013 -15.360336 -36.282715
Au  -18.300242 -36.678773  -4.722481
At    8.246763   6.778416  16.190573
Te   16.784210  34.109604  -8.631622
Rb   -5.565440 -25.953184  -6.733617
Po  -10.122230  26.242389 -22.751582
Tb  -20.994683   9.602471  20.358559
Al   11.593772  39.065466   7.028952
Ca    1.076981 -24.815340   0.587835
Al   12.541535  25.755653  26.681279
Rb    3.288117  -0.997470  -3.021179
He  -35.419319  20.287404  11.943455
Re  -14.797718  20.544455  15.202663
Pb  -26.608946 -18.690736 -11.108413
Na   12.045725   6.942917  18.311661
Cs   -2.012719 -13.254429  -1.400684
Mn  -19.256563  -8.743994  -6.815053
Ho    0.915573  39.963831  17.222375
Ti   -6.771456 -29.464456 -31.539503
Co    8.190940  42.148917   3.302783
Cr    2.157811  10.988354  31.087828
Ar   35.285728  -3.026471   7.542755
Nb   -2.254799 -38.180401  -3.364448
Li   -0.786922 -19.072647  36.090117
Al   23.234458 -32.213001 -20.379301
Pr  -17.816280  22.144456  -6.328068
Cs   25.338394  13.562779  20.153624
Dy   -3.802453  29.812494 -12.398301
Ir    6.435627  15.070092  -3.775466
Mg    3.296375  19.622183 -36.892486
I   -17.484417  34.299540   2.309927
Ar  -22.944262  16.472246 -13.120308
C     3.090788  -0.166553   7.610810
Se  -22.096222  30.687112  -6.017076
O    22.043599  37.625768   7.110676
Co    7.664425 -43.279722  -8.854294
Gd  -22.816886  -7.858360 -14.469246
Sc  -24.884972  14.309702  -3.195131
Cl   13.713764  -4.405141  33.388734
Zn  -17.695844  23.276759  12.467485
Be  -35.070003  17.342819   6.525627
S   -22.304869  -6.845989  13.688003
Rh    4.929613  16.467781 -39.588243
Re   -2.667090  26.353128 -19.925930
Ne  -33.283207   2.142419  -0.678256
Fe   -2.195030   8.739176  26.806083
W   -25.026563  24.333616   1.863808
Te   23.214688 -20.659352 -31.203958
Au   -6.785844 -35.887181  26.571435
Sb   41.487528   1.853671  -6.307573
N    17.968151  -6.411400  -9.986906
V    -2.339850  -8.223443 -29.389612
Co  -26.039739  33.694865  -6.202019
In   -9.612309   0.775563  14.878230
Ne   33.166529  -4.764833 -19.233360
Ru   22.250826  13.700337 -29.940312
I   -42.859069  -7.965081 -10.044485
Mo  -19.094377 -14.403584  27.542425
Mg   18.536769  28.964343  28.930269
Ba  -13.358271  15.797276  31.113244
K     0.683935 -21.814527  -2.316252
At    9.235901  16.096969 -24.451444
Cr   27.797697  33.674209   7.634248
Cd   38.581041  15.464695  -9.544706
Mg    3.524655  -9.166661  38.019303
Nd   18.757457 -29.337634 -14.807919
Hg  -25.970311 -23.416136   8.037876
Co   34.454917   7.159656  10.204965
Ar    8.993921  18.527951   1.763257
Hf   29.016955 -19.391499  28.236444
Ni   -4.019831 -34.142314  18.067857
K   -13.377253  13.924658  -1.742014
Lu    7.091360  31.768153  27.075957
Li    7.261407  41.790327 -15.326594
Yb   14.893513  -2.125380  30.925271
B   -37.412549   1.876844  -1.157827
Mo   12.002609   5.193660  -6.944280
Ne    1.758097  -5.252999 -28.343774
Zr   12.002954   0.376556  15.005875
Ir  -17.233452  19.338179 -35.747016
K   -16.586759  -5.129116  -6.979609
Tb   -8.216737  10.549078  18.896597
Re    5.999241   6.457998 -19.629292
Mn   33.750813 -25.697992   8.994941
Li   -1.544815  24.563178  37.151772
Ag  -19.109433 -25.314956   0.478428
Te  -15.688422  25.898531 -19.654409
Dy  -16.159344 -26.386981  -0.842135
Ti  -27.492465  -3.245323   9.809885
Tb   17.511546 -35.530448 -21.429535
Zn   -3.891366  40.197111  15.204689
Tb  -24.475045  -4.190104  14.650977
Zn   18.490076 -25.321855 -25.338031
Pb  -14.724638 -21.385042  28.135344
Nd  -27.523881   2.110331  10.913694
Ru  -18.345100   1.366826   5.562906
La   11.072170   7.475975 -30.200330
V     5.536569 -18.825700 -28.749127
Ag  -12.246217  15.134882  28.138749
Pr  -20.335048 -18.799783  -4.747597
Ru   -4.421228  36.919951  -3.789201
Ni   25.997583 -10.055688  16.569658
Ag  -26.550612  13.821497  30.041609
Rb    3.798655 -13.146793 -35.356045
Ge   26.327419  26.720716  23.399964
Sr  -13.567068  39.083578 -11.971576
Ar    4.172361   1.297595  31.998972
Ga   11.928137 -18.502517  -4.697244
Ar   -7.858895  13.468831  22.026030
Sr    5.093504  10.303516 -41.668757
Gd   38.737281  -4.554967 -14.502066
Br   14.889110  -0.667471 -41.288691
Be   16.653051   0.815780  36.488254
V    17.573762  38.914622   7.247346
Gd   40.735434   4.327174 -11.308627
Cl  -31.824769  -4.313975   9.137631
Cu    2.968118 -36.791853   6.244485
H     6.450674  27.009772   5.537324
Ta  -30.841269   0.771765  14.163806
Se    8.417411 -30.940589 -26.187787
Ta   27.197674  26.206066   3.860193
He  -12.543791   1.885321 -42.386318
Ni  -28.305318  24.408143 -24.324846
Ca  -12.456579 -42.630176   4.986909
Ag   23.850470   2.354271   7.272272
H    15.511743  10.301926  33.392427
Si  -33.278992  12.030937   1.031974
B    12.408840 -18.512979 -39.517046
At  -21.329876  -7.836202 -28.205492
Tl  -16.313595  23.654852   5.700219
Te  -24.994961   1.751668 -18.823197
Hf   26.005217 -12.821737 -27.518141
O    23.155569  29.160871 -13.504752
Y    -7.974359  40.546810  -9.195267
Cu   13.389869 -10.726045   7.436928
Tb   37.167454  -8.830628  19.180995
Ge    0.411242   0.560871 -26.779511
Be    9.779128 -11.997956  32.836715
Bi   -5.951512   7.508725 -27.460717
Os   15.900250 -14.904735  -2.017158
F    37.663668  -5.314231  -8.255629
N    13.605307 -11.958326 -18.533883
Li   24.782140 -29.517810   7.006862
I    -3.452750 -24.269483 -14.494811
V   -20.602475 -13.372127  17.001825
Yb   30.117233  12.344136 -20.795543
Pr  -23.512114  33.299612  19.529469
Y    -0.437462 -36.361254  12.156890
Ba   10.181497  37.551412  -0.218728
Pd   23.147676   0.984154  12.058097
Zr  -15.732952  -6.474078  25.783029
Ta   14.020696  -2.392388  23.105193
Ge    8.894479 -29.026702 -18.848801
Fe   29.159219 -15.109937 -27.594263
Yb   33.873031  11.533124  26.450499
Mo  -19.309570   6.940455  34.578387
O    -4.946952   6.476004   9.378663
K     6.284495 -19.363754 -39.862530
C    -0.487171 -40.606764   6.990997
Hf    3.022857   4.194459 -36.078400
P     4.601355 -11.448032 -37.823622
Rn  -28.672976   4.453913  16.735054
Li  -25.490129   2.978793   0.735245
I     4.946150  12.834856  38.062857
Xe    2.709331  -6.558772  20.258764
In   18.518877  -8.343694  -9.388493
Ba  -18.495596   9.536080  11.327208
Pm    5.296319 -15.914953 -20.803146
Cl   14.371821  -7.036680  13.141468
Cr   12.243179  33.346343  -8.772156
Re   -8.034356  24.208886 -18.849253
Nd  -38.947198  -7.828735  -6.860539
Bi   38.932973   2.312977 -18.368320
Bi  -30.446717  26.778244  -0.202012
Cu  -24.484561  32.422685  -3.941939
Lu   -6.067015 -32.367899  23.718783
F   -14.421401  -4.389067 -30.890725
Kr  -13.252698   0.383101 -38.690110
Br   13.281534  -2.095691 -40.163557
Au   11.510411 -23.957512  11.116357
Hf   14.476124  38.194263   2.028497
Pt   12.949088  -5.210722  18.042773
Sn   19.068499 -19.609109  20.779041
Al   -7.563946  28.684594 -22.835017
Rn    6.023669 -28.471130 -34.437780
Sn   -0.542512 -11.654095 -22.451410
Rh    8.320889  21.395590 -16.557904
Ca  -19.070986  -1.189337 -22.345520
Al  -16.774463  10.181485  30.349316
Ne   25.682585   4.929363  36.434802
Rn   28.572231   1.338927   0.033327
Te   -7.096693 -10.201945 -14.924691
Ne    7.802899 -14.037944   1.691042
Kr   -6.929298  10.056016   0.123317
Ga  -39.326389   7.690444 -14.758895
Gd  -30.671765  22.416051   5.128233
S   -30.758739   7.485504  -9.657775
Sr   -7.182840 -13.649190  20.730645
Sc   -2.326649  20.501724 -28.967235
Cs    4.521163 -13.886795  -0.505705
Ru   10.099881  -8.215479 -36.508123
Y   -42.763854   0.385335   2.289571
Sr   10.537568  39.537036 -15.367555
Rn   -4.296805 -19.282164  40.213691
Xe   24.754448  17.915479  -0.527710
Pm  -23.054673  22.870163  -6.806058
La  -17.273686 -21.178850  36.202186
Cd  -28.355461  -6.254135   1.234870
Mg    2.354466  -7.100049   9.980036
Pm    1.498186 -22.206864   2.062303
Ir  -13.098946  -3.759713  -5.171228
Dy  -32.844259 -15.363453  -7.431096
Ba   -2.099000  -1.834204  36.659319
Ho   -5.007467   3.329214  -5.848727
As   16.823381 -37.419906   1.508607
Sm   19.929069  11.160939  34.365103
Mg    0.278937 -31.344954  18.017273
Sc  -43.652080  -4.719412  -9.882251
Tb  -17.310375 -41.047222  -3.801980
H   -21.506350 -22.977429 -28.604274
Po  -12.986144   8.353534  30.766056
Cs   26.923454  11.463778 -24.628766
P    -4.133899  21.545824  31.534601
Fe  -23.222817 -29.776676 -19.616595
Eu   23.694908 -12.494045  13.502349
Ag   -4.816796   2.590798  17.001572
N     0.288985  -6.098541 -33.386521
Na   13.815434 -13.952881   6.067838
Er  -32.648325   9.648879  14.239823
Ru   -1.065219 -10.377137  34.233537
Ta  -16.464071  12.115576  25.705632
Ag  -10.277895  27.614912 -24.600679
Te  -18.709259  -0.029948  38.905447
Yb   -2.491016  -6.311142  25.678980
He  -31.166730  -3.857150   6.512398
He   -4.370230  19.925578  20.503157
Se   -9.182438 -11.433994 -14.102175
Hf   -1.501859  10.886891 -42.316569
Ga    0.601408 -41.394191   6.199628
Cd   30.950746  18.793680 -20.532473
B    21.896132   5.619686  13.425545
Te  -29.342010  19.068653  29.385963
Hf   -2.627739  22.634615  35.481225
Ce   -0.304108   8.183805 -11.730906
Pt   43.566534  -0.585943  -5.891241
Zn   -4.286965  -7.299611  16.977155
Tl    1.412128  11.254803 -27.829436
H    -3.439954 -31.271129  31.032123
Pt    9.078284  19.161746  18.517508
Zr   -1.512333  36.937536 -17.089358
Rn    8.625625  -5.565245 -10.984085
F    11.228789   9.516354 -17.826584
At  -14.672852  -5.772850  23.613063
Na  -30.978856  18.618850  27.970713
W   -15.217046 -28.556360 -30.660106
Eu   -3.262665   7.120129   4.167492
Tl  -36.419773 -10.745122  14.244671
Hf  -31.619295  12.898014  27.297278
Pm  -18.572003 -25.827736 -13.050471
Au   28.604227  -4.435354 -18.434267
Mo   23.655429 -23.761878  -8.554416
Sr   29.988144 -14.593476  -9.863028
Lu    2.645655 -26.342808 -22.577857
O    16.591858 -21.443822  -4.838281
Pr  -16.743279  23.613730  11.006792
Rh   -9.612364 -19.364790  37.280896
Si  -20.846877  -5.626871  28.067085
Bi   18.479259 -18.688676  -8.484003
F     0.680550 -16.848619 -26.287363
Pb   18.416022  23.408272  17.577780
Br    4.650124 -10.129888   3.647109
Au  -12.136364 -15.958627  -8.086678
Br    3.315525  27.315478  35.580347
V     1.392967  32.000383 -16.940944
Hg   31.643998  10.456854 -21.526233
Re  -19.419942  27.220751  24.340282
Br   35.336545  -4.649838 -21.179382
Sm    0.319775  21.657872  24.526547
Br    2.646785 -34.992688   8.424758
Cl   39.626412 -16.624060 -14.255542
Tb   -9.004981 -37.114520  -2.712288
Ta   31.175035 -24.823276 -20.015416
Ni  -37.804114  -7.687663  10.672408
Zr  -36.184989 -17.641144  16.185175
Al   -2.766041 -12.969950 -43.399169
Be  -13.983102   0.092125  32.867983
Sr  -25.753237  25.285843   3.903799
H   -25.156494 -31.009959   1.559809
Kr   32.900779  20.844983 -22.594621
Ca   14.747040  29.910367  -4.259047
Pd    2.981167   2.814522  35.855268
Al   31.316077 -28.205484  -2.232071
S    -6.065347  33.288238 -24.609270
Zn   -2.799431 -36.946944 -22.705376
Sc  -17.830766  29.018332  -9.838842
Cs   -0.149728  37.908918  -2.731458
Xe   21.561854 -32.657768 -16.503095
Gd   14.687963  -3.666662  12.973252
Cr   -0.778161  -2.040461  10.455094
Cr   13.682236 -20.856525  37.950603
At  -17.965018   9.466781  25.616923
Pd   10.298331  16.998034 -10.573658
Ga   16.672520  -2.367671  -3.477579
Fe   10.584970   8.177205 -42.457800
W    30.037418  23.028492  -4.534480
Al  -13.887067 -27.951886   1.085420
He   19.016458  12.203844  34.113064
Kr  -10.731817   3.113711 -12.602850
Po   -4.274814  -6.634772   2.298018
Tl  -11.637116 -43.339334   2.632114
C   -36.709506  21.150866 -16.227002
Br   10.419601 -33.779420 -14.361862
Sm   -2.652772  23.721123  -8.176684
Rh   -3.270325 -11.308284   5.104222
Au   34.243412  -0.097910  -3.832534
Gd  -13.270468  13.917184  -3.570738
Os   -5.899296   2.191032  -2.180812
Se    1.222025 -32.465711 -15.192712
Ga  -34.344616  15.881709 -14.281653
Y     3.091283 -40.851235   9.673224
Xe   -8.202650  43.518552   4.524107
Zr  -24.337703  25.713795 -15.311371
Ho    6.432124  28.707343   1.468299
Y    31.673042   8.400243 -21.085238
C     1.464668  -4.255830 -32.467114
Cd  -17.224466 -19.386323  29.761235
La    9.547931  -7.449715  34.835183
Be    3.150251  -0.159821  -3.607773
Tm    6.963404 -10.444032  38.149001
F     5.902139 -14.427439  -4.108641
H    -6.447500 -10.644474  36.708216
Ti   30.883809 -14.662597  11.506131
Po   -3.047722 -25.780400  11.291196
Cr  -26.761928 -15.238191  -1.104460
He    1.177609  35.224357   3.085750
Li  -14.386088  16.789156  30.973382
Tc   18.047756   0.126592 -29.174112
Mg   35.356763  22.588445  -0.732955
O   -36.084269   2.155078 -17.859577
Fe   21.759224  12.692562  -9.044234
Dy    5.220261  -2.880334  14.682733
Sb  -20.187995 -34.052704  13.097973
Te   42.799672 -14.394585   5.720606
Re  -25.300699  27.394100  -5.003939
P     5.500774  45.138645  -1.470787
Cl   -1.846404  25.730730 -28.740367
In  -18.963943 -12.830581 -36.833947
Co   18.916733  31.867359   3.557626
La  -13.998033 -16.174118  -3.923583
Hg   -7.404334   4.708784 -14.334378
Ar  -30.452316  -4.305948 -25.837562
Tm  -28.262468  -2.975259  21.550940
Ge   -6.999590  -4.416217  41.237409
Fe  -32.718437  25.409118   1.473640
Dy   12.344776  -3.688892  25.104322
Lu  -17.007391  34.633500   7.275320
He   15.934782  15.007962 -11.319866
Be  -11.912495  36.159496 -19.967898
Ce  -17.577760  -5.954093  -6.564667
La  -26.286684  -3.678614  -6.677855
Pr  -11.423268  18.269781  38.807142
Ho    9.872099 -17.873261 -13.118402
Sm   -3.633848  14.938054  -2.844505
Cu   -5.391223  33.910853  -8.365469
B    40.339907 -10.945368  -4.438843
Cr   26.695176   0.270747  33.598169
Hg  -31.218692 -11.874552   7.116674
Sm   24.692591 -13.048276 -28.669035
Li    1.487008  27.935054  -9.930786
Po  -20.979457  13.400645 -23.361123
Ho  -12.296028  23.033920   3.970580
Po   35.162245   4.092976   0.389406
B    -0.750548 -26.909481   2.074038
Pr   -1.802195  22.920456 -37.306076
Mn   41.082734  -0.069860  -9.183596
Tc  -30.612615 -12.396756 -13.708226
Ce  -11.441374  19.505817  18.842165
Tc   -9.263360  25.391636  15.983335
Dy   15.285197  -3.439812   1.699487
Mg   -7.788671  11.464721  16.717840
P   -34.323429  20.765140  -2.747399
Ba  -34.503824  -3.117744  -7.520082
Se    2.385627 -12.655148   7.007676
Co  -15.206029 -19.173756 -10.387776
Xe  -35.752650  16.565169  -5.837934
Si   42.248670   8.476307 -13.145041
Sn   -1.653290 -28.489278   7.674610
P   -24.680789 -34.677800 -12.846488
Ne  -33.475419   5.710092   2.949644
Ne   10.249661 -21.093424  33.515944
Sn   29.890677   8.922424 -10.191565
Mg  -32.083731 -26.145482 -18.152737
Dy  -24.988141 -12.621123  -6.890606
Be  -24.204415   0.896659 -15.065104
Rh    3.246729  33.089008  18.472218
Rh  -26.509393 -31.283094 -15.520251
P     4.603228  36.231717 -15.689945
Pm  -31.057414   3.348454   4.767936
Tc    2.398834 -32.805159 -31.414817
Na  -23.552262   1.315383 -20.482000
Se  -24.577737  16.751480  22.301192
La   28.142766  -4.563864  15.781347
Er    8.630256 -30.905830 -30.131383
Pm   -0.119223  12.886767  41.720781
Ag   26.368677  26.755771 -25.750169
Ge   19.880370  27.193826 -18.237226
P   -13.021924  -7.513146  28.762854
Sr    5.665493 -22.098334  39.480930
Te   17.178094  10.914218  11.307550
Cs    5.600251  30.101318 -12.953426
Cr   -9.594142  41.341127 -13.708801
P    14.386988 -11.968362 -18.344247
Ge    9.674697 -35.508045  -4.429493
Pr  -39.281487  -7.163542  -1.622588
Pr    6.350046 -36.059002 -18.371616
I     6.909230  41.828746 -14.524618
Nd  -31.465229  19.192264  -9.174239
Yb   27.084839  32.161013  -5.043113
Pd  -25.805574 -15.950935  27.505135
Cl   30.058593   7.305998 -21.827126
K    11.626606  24.230647  14.362416
Na   17.048106  20.319454   0.197716
Yb   -0.570609 -22.281238   9.639936
Hf   -4.018653 -15.041822  31.953065
K   -10.103971  30.491600   2.112853
Lu   -8.712176 -11.427032  39.976152
N    -9.995197 -33.134121 -22.778619
Ar   14.794935 -13.377436  23.307825
Fe  -27.032776  14.247909  27.552787
Sr  -20.041198  -7.343973  -8.370211
Ru   -6.282396   9.853160 -39.109018
Sr    4.268122   8.842113  -5.562576
Zr    4.319458 -35.036989 -23.421178
Li    4.410711  32.926970 -24.431006
Hg   28.888295  -0.781674 -17.248338
Ta  -26.468699 -12.178264 -10.468118
Pd  -23.197265  24.698957  -4.539257
S   -18.469665 -22.917266  -7.005565
Cu    8.490819  -9.148220 -26.168354
C    -0.351710  -8.337819 -42.359132
Te   -4.575102 -24.041966  18.770850
Nd  -15.162699  -4.800004  29.708900
In   21.315467 -12.283210   1.626021
Lu    5.835286   6.271721 -21.334530
Sr  -20.320747   8.599624   1.532199
N    19.683204  23.551996 -33.269715
Hg  -14.074481 -27.748015 -12.705853
Br   16.467837 -39.640347 -14.234775
Sn  -26.671405 -15.228638   3.141581
Sr  -33.878957  10.121017   6.330821
V    -5.318183  17.624633  29.686589
C    -6.661279  20.406011 -27.394946
Au  -15.984156   6.059858  39.403547
Ba  -22.076583 -19.167223  32.180218
Sc   31.468280  -8.358935 -27.398630
Rn  -15.885501 -29.120441   9.490064
H   -42.179428 -12.377277 -10.303472
P   -24.463893 -22.208012  17.251680
O    -7.300354  42.167858   5.896131
At  -23.242668  13.909561  -7.164196
Pr   -4.864424 -31.361518  16.084962
Y   -39.306147  -1.361322  18.647879
Pr   -8.949606  14.161672  41.317785
Ag    9.786664 -36.969819 -11.253098
Rn   -2.918899  -3.602016  16.196687
Mn   -6.499685  31.972799  -9.034877
Cu   24.573378  -0.448408  17.123991
H    -3.951366 -26.717447  -2.723353
Hf  -28.250410 -29.153857  -7.881980
Ar   34.050807  -4.255443 -19.562882
Ca   22.060250 -37.487580  -7.858093
F   -15.798314   4.433492  39.667667
Re    0.687604 -13.563637  32.239119
O   -13.736815 -17.958719  -8.659490
Au   19.397476  15.388795  -0.514392
Li    7.667353  20.514103  26.467848
Hf    7.885116  -4.708821  -4.281164
Ar   36.853767 -18.308180  -8.053456
He    8.691858 -14.319719  27.149057
N   -20.914795  19.003446 -19.586720
Ag  -26.970603   7.059797  13.917879
B   -11.728201  26.499055  31.606853
Rh   11.074197 -24.791485 -25.424397
Rn    7.281937  26.501588 -24.915894
Fe  -30.598646  14.087860  20.428786
Pm  -22.722862  -1.252228 -14.961480
Tb  -20.532280  39.431383  -1.033390
Be  -19.092806 -34.204823  -9.278373
Pr   10.646591 -18.252726 -25.941481
Tb    4.253569   6.687648   2.340277
Pd  -39.262218 -12.705740  -2.172415
Br  -16.790864  24.009601  -5.764228
W    23.367567 -25.741694  -8.554240
Zn  -21.793992 -22.686060  -8.426151
Nd  -12.200577 -22.878353 -15.651362
Pb   31.190650  -3.170900   0.091576
Sn   21.762600 -21.512807  21.870771
Nb  -17.494608   0.097422  -3.680145
Sr  -18.326822 -10.144445  16.592555
W    -3.576051  34.577783  -0.169136
Ru   26.633027 -33.200399  10.396446
Fe    0.753610  22.238858 -18.941121
Pb   13.702233  29.564914  30.615697
As   32.603102  24.838668 -12.518935
Cl  -22.205893  -0.931607 -13.294391
In   -6.688677  10.117438  30.600971
Cs    1.150387  20.567625  35.396288
Gd    9.897249  31.110138  23.585857
S    -5.337578   5.801554  21.011415
Ga  -17.363692  -0.987062 -16.890474
Rh  -20.901634  -2.494371   9.092768
Po   -7.004965 -27.841366 -31.167450
Zr   34.420117  -9.505314  14.172884
Be   11.634310 -10.066191 -16.922842
Sr  -18.998988  18.299138  -1.719633
Rn  -22.712667  -4.310128  38.705111
Os  -17.139668   7.160341 -40.634768
Ni    8.353531  39.218907   7.890608
Tl    2.002486  -3.007532 -36.478767
Au   23.495832  -2.411631  -7.109591
Tc   20.589769  -9.077171   2.433639
Cr   11.726157  38.934615  -9.827203
Al   -6.913142 -17.845976  12.768849
Ca  -16.975942 -21.871635  -8.218740
Pb   10.721783   6.511170 -15.245158
Fe  -33.501795 -24.863454  -0.116418
Y    23.034411 -24.675782 -27.930988
Tb   13.533148  -8.241172  29.215816
N   -28.145702  20.913774 -24.007084
In   -6.322283 -22.514680 -38.054147
In  -32.176730 -14.401324  13.303408
O   -27.887730 -13.992937  31.524928
Pm    8.886008  13.597138  37.538728
Zn   -0.749277 -25.697125  32.894298
W   -38.007472   6.146471 -16.450568
O   -17.946262  12.972188  13.388237
Sr    5.693076 -24.281600  -1.990224
Xe   -3.386408  -2.366492 -18.462707
At   31.074517   4.905184 -12.315449
Ar   12.921720  24.635268 -30.563217
Mn   18.470101 -20.736140 -23.338061
Tl  -29.648708 -11.136005 -26.765123
Lu   -5.478762 -26.746276  25.021921
Tl   -1.421581  24.254644  24.371896
O   -19.502917  -0.318148 -16.535031
Yb  -33.558029 -14.396454  -6.312822
Pb   30.582272   5.779176  26.107816
F   -25.247708  -4.685444  33.446410
Mn  -29.371752  30.163465  -4.932846
Hf   10.411880  31.388432   9.339087
As  -23.462365  -1.092716   3.682908
Er   18.008013   5.095832   4.310509
O    23.461545 -14.791615  14.468011
Rn   23.223760 -24.351051 -20.456203
Cr  -28.926671  -7.605409   8.414363
Co   25.342601  20.775065  14.220376
N    -4.805856  11.609758  40.557616
Li  -21.648880   3.045521  10.516525
Eu   13.792774  -8.176646  14.194089
Sc   -3.809157 -22.573310  34.308021
Cu    8.480363  -2.562074   8.363632
Ge   -1.498076  43.635225  -6.372313
Al    0.871333  14.368001 -25.105444
Ru   23.378387 -27.537364  11.254049
Tm  -13.114641  30.549225  16.968897
La   10.737531  15.232507  13.161986
K    14.247859 -11.639984 -28.354244
Mn  -16.742853  26.672294 -22.226666
Li   25.785838  -0.175207  -5.459748
Er   -9.912505  -4.686438  27.795615
Cu  -11.768513 -28.297957   3.493458
K   -22.371132  22.323999 -16.508862
B     1.896026 -34.939926  29.022779
Pb   -4.760879  25.691486  37.471487
Zr   -5.762943   8.582623 -22.831064
La  -10.835392 -30.079413  25.650832
Sn   -1.447303  12.664296  33.818876
Pt   21.396207 -29.411624 -20.166839
Cd  -17.630217  11.026671 -34.257667
Pm    1.435080  11.826294   5.008650
Yb   38.217502  14.522503  -0.616219
Nb    6.339697  -8.445003  40.852770
Fe   -3.898127  17.878017  -0.143167
Se  -21.002187 -19.904295 -28.466662
At   -0.221040 -16.068989  40.879569
V    18.055701  14.350724  11.438684
Se   -9.982120 -44.342681  -3.043316
Fe   20.327933  14.041787  35.612299
Si   21.300544  -2.787727 -14.032688
Po  -20.156843  -0.556258 -34.619768
Ge   -7.016090  26.728334  14.662800
Pr  -17.569575   2.149189  20.646586
O     4.451162  -7.837655 -23.738290
Ca  -27.520636  11.878404 -11.167238
Pm   19.272847 -23.928898 -13.466237
Tm    9.639002  21.566021 -21.324223
Tc   26.064751 -22.181231  21.562722
Ar    4.093025 -17.167588  10.971423
Sn   12.046108  12.492832  -2.024647
Ho  -21.581253  14.653783  20.350333
Ti    3.160822  22.070679  11.619313
Gd   19.109922 -14.101385  -0.913538
Sc  -24.070210 -29.368988  -3.655385
Pd  -27.071387  13.016210 -32.573851
Ta  -28.739656 -20.331268 -21.622131
I   -26.040143 -15.635969 -15.176804
Si   28.449408  29.371406   2.734634
Hg   13.395250  -6.079674 -22.735913
P   -32.262560  -9.221191 -10.898437
Eu  -11.589517  23.102960  -6.272189
As  -24.299417   3.745874 -20.553408
Be   25.302891 -18.875351 -26.342725
Na  -22.238170   8.175831 -35.016289
N    41.553477  -6.418338 -14.383196
Rh  -16.018423   1.546956 -40.607351
Ru   -5.481607  -3.846157   9.398754
Tl  -16.906703 -37.396485 -16.804050
Nb   39.705873  21.041447  -2.330897
Er   -4.402706  -9.788565 -35.262109
Sc  -28.180106  18.029144   8.082181
Ba  -34.621690  25.638619  -6.863179
Bi  -24.530907 -10.161891   1.003011
N    34.182857 -14.269121   4.252118
Te  -29.252647  18.539854  -2.770966
F   -11.003153   1.421042 -17.589728
Kr   25.404515  24.551638 -27.023571
Po    5.030562  -4.914891  26.638078
Na  -31.721562   5.175361 -20.189327
Cr   -2.131838 -12.846169  22.459713
Tl   35.347606  -0.628883 -20.452709
Ca   -8.803799 -40.503622  16.647495
Ho   -5.628769  17.006775  24.133499
Ir   32.993326  -4.464915 -15.089949
Tl    1.120210 -20.211569 -40.933546
As  -34.302996   9.663471  23.202436
Mn   41.471893   8.939884   9.676673
Eu   29.108963  -7.939527   9.840611
Ru   -0.435596  -4.568850 -34.699688
Nd   -5.458100 -20.306746  30.025694
Ti    0.813362   8.304081 -44.208038
Te    0.433375 -35.713692 -18.638880
Pd  -11.785094  10.468584  36.129809
Mn   40.491783  -3.837079 -19.344819
Zn  -23.429930   9.496207  28.580973
Ba  -15.268847  31.810252  -2.898350
Cr  -30.813820  22.761611   8.914515
Yb   17.465735 -40.738072  -1.177535
V    43.975014   0.216266   1.290542
Ca    1.837695  40.376722   7.406628
He    1.522463  -5.485979  21.029633
Ni    0.906571  -5.796090   0.155911
Sm  -14.365301 -27.574197  29.145579
Mg  -21.317633 -11.805430  32.723441
Dy    9.750065 -20.188011   5.861413
Cd    5.724044 -28.223315 -17.362490
N     0.231045  21.368146 -12.703557
Sn   21.137478  18.316171  -5.632609
Kr  -30.673417   7.208667  19.929644
Dy   -2.698131  11.953482  -0.372479
Dy   -3.613738  27.428536  14.376084
Tl  -32.730677  21.221539  -7.699849
Zn   14.106922   8.942403 -10.870207
Cu   -6.232446   1.982257  43.936497
Se   36.714316 -20.422572   3.685210
Ba  -14.530396 -15.904625   2.649639
Tc  -24.596158  16.892522   8.396691
W    22.831305  -4.928087  39.115092
Pt    3.287192  31.283055  11.772788
Te   -3.008030 -10.422280  21.849550
O   -24.271791   3.492694 -30.251029
Tm  -40.547044   1.109378  14.070432
Bi   38.819463   3.811362 -23.482134
Er   18.920447 -27.205686  23.791435
Ir   44.122757   0.919643  -8.760025
Ga   -5.098844  19.569178  27.802940
Co   24.070295  -3.067321 -24.594378
At  -13.638611   3.440385 -13.203094
Sb  -32.974746  27.011052  -5.882337
Sn   -9.562422  10.509964 -19.188225
Ca  -11.405237   8.406784  -2.906071
Ca  -13.451567 -18.006093 -22.923360
Lu   20.314030  20.801672 -21.641171
Ag  -35.377758 -23.275989 -14.593438
Tb  -29.183508 -20.771802  22.859595
Ar   -6.251149 -12.510427 -34.449038
As   -3.796342 -21.070484 -18.737880
Pr  -15.869354  -1.981332 -15.956795
La  -32.754762   6.146029 -12.913763
Cl   19.072110 -14.386166 -15.166445
Sm   -1.502813 -24.950081  38.049745
Cl  -11.406329  -7.822910  22.521251
Al   -9.055267  -9.603349 -10.888518
La   -9.395179 -24.941841  17.348133
O   -15.534211  -1.003344 -26.250856
Cd   22.312147 -14.248952  -1.623301
C    19.989233  -3.057989   9.137645
H   -14.416934  -4.262137  39.180616
P     7.252658   1.798468 -31.295858
I   -10.357656  22.359542  26.038540
Ge   20.531648  29.400389 -25.250152
Li    1.295105  -0.365281  30.692166
Rn   31.204788  28.372037 -13.406784
K    35.675807 -13.094882 -15.941468
Mn   36.505512  12.348637 -17.188592
Y   -14.174189  -5.869396 -23.861721
As   17.325488  20.352142  22.893748
Tl  -22.347411  14.594579 -18.184104
Cr   10.739794  18.455992   8.149203
In  -28.376725  15.250423 -22.431680
Ga  -23.218996 -27.155949   4.139309
Eu    9.423090  37.463836 -13.660130
Pb  -29.323727  -5.080861  22.124577
Pt   -0.292114  -3.301853 -40.463303
Ho  -17.371992 -33.504221  -8.468741
Zn  -36.920796 -10.413122  18.024163
B    24.403138  -6.042064 -31.711259
Na    4.370513  11.151816  23.984151
Pr   -7.901284 -12.445984  17.648983
Cd   31.489711  -6.934500 -21.215098
I    -5.616582 -16.149982 -12.389911
Ce  -13.954189  31.284442   8.589578
Tc  -28.480924  -4.626977 -20.609491
W   -27.322300  34.757337  -1.889807
Tc   -2.842108  -5.291308 -14.514854
Pb  -32.907575   3.321633   5.505847
Pb   24.418043  25.552351   7.955705
Er    6.922567  33.673787  26.152976
Sn   36.089856  -8.705923  23.084297
Pr  -40.280311   8.009898  10.294562
Pr  -13.492737 -16.451035  26.926267
Pb   14.144691   0.159896  -0.575003
P     5.812372  27.359541  18.602486
Xe   12.427493  29.522109 -14.165168
Sr   10.408624  21.465087  -1.304685
Sr   -7.070427 -16.210251   2.773742
I    36.532701 -14.661963 -14.361414
Dy  -26.832118  -5.051585   2.163834
F     0.660619 -16.800148  -1.569232
Yb  -30.207247  16.422994  12.952386
Xe   -0.609402 -13.420773  29.658988
Br  -23.714252  33.842333 -14.804177
Rb  -28.097614  33.720388   7.584678
Xe  -21.869099  -4.475280  -5.025876
B    23.560153  26.386497   2.613847
Ba   32.202692 -14.435157 -17.749192
Ta    8.685751  24.554465 -17.041703
K    19.474351  10.328629  14.103074
Sn   15.941930  14.615540 -36.694644
Ag   26.046634 -13.521099  27.273840
Rh   37.314712   2.061915  24.097275
Er  -36.270193  -4.385824 -15.443219
I     9.010064  25.085914  -6.789241
Ba   -6.453545  -6.914606   5.431092
Eu  -27.000294  20.375494  -5.717102
At   -3.779328 -19.396732 -15.456945
Xe   18.877437  -2.179490 -14.071467
Ru   -6.943055 -14.073372  30.105612
Au   -4.180610  41.014732   7.832862
Al  -27.234556 -22.135470   1.122823
Po    8.521828 -22.075239  16.738565
Ba   -9.228618 -34.672215 -27.022034
Ti   -0.294886  23.433655 -11.868154
Si   21.127730  -9.786816 -22.603981
Mo   37.647858  17.913867  17.319606
Pb  -11.155858  -5.080222   0.466909
Si  -24.501406 -17.079736   1.903675
Ce   -6.902932  -0.274528   7.156781
Fe   10.320091 -40.675893 -14.393428
Tc   -6.171194  29.941788   5.795626
Si   23.924323 -10.893713  22.491000
Pm   -6.270217   2.171436  31.567061
Rn   12.197479  33.275700   8.364401
Rh    6.670433 -23.886433 -19.003845
Ti   45.024484  -2.909011   6.681505
La   35.143747  -3.346336  -9.356783
As  -23.007503  39.094182   0.101228
Ga   11.918510  -7.052306  28.967256
Rh  -33.605703  -0.046941  14.093473
Cd    3.018311 -13.526607 -17.729259
K    22.062734 -23.874374  28.507388
Cl   -9.563809  -8.813391  22.237182
Fe    3.209021 -28.359006  -8.623676
Ga   -4.637622 -20.695597   4.151264
At   -0.210915  34.830321  -7.958242
C   -15.885436  -9.056062   8.913380
Cs   -4.794856  -3.895953  -2.509377
Yb   24.122645 -24.420299 -27.188086
Ni  -23.815045   0.953312  19.232673
Ni   38.776881   4.495011  19.703469
Ti   10.644768  -4.188097   7.264804
I     7.102819   0.706365  26.360134
Fe   40.495180  -1.099547  17.162064
Sn   22.857105   2.533857  10.519305
Rh  -32.983210  -0.206497  21.655908
Ti   -7.541833 -27.139427  14.361881
Pd    1.930778 -39.894830  -4.645334
Tb  -15.236755 -15.726324 -21.323612
Gd   12.792615 -12.774566  14.432295
He   -4.454959  29.160675 -22.049058
Yb   10.681284 -19.778903  29.309768
Ga   25.128979   8.247832  19.625064
Sn    3.922005 -40.222704   5.117990
Ni  -15.792358  -3.509166  13.057801
In   31.016556  24.223109 -23.132443
Bi  -11.031149   0.435684 -23.861894
Mg   10.507445 -43.307822  -9.199449
Eu   13.353099  25.173729  14.995537
Xe    5.582150  20.483323 -23.193059
Ba  -14.829935 -21.973272   8.463163
Mo  -43.034493   6.469559   0.981370
Ba  -19.155706 -35.934460  -1.198569
Ga    1.025120 -30.255105 -12.449642
Cr  -21.792859  28.758449  27.467614
Kr   -6.657303  -5.591859  22.379233
Mo  -20.642380   9.761341 -18.734868
Ho   19.398369  -0.588542 -39.748192
Au  -27.201781  -2.838031  -2.133884
Ru  -15.664614   6.490340  41.706655
Li   13.608343  18.170020   1.217696
Mg    3.922123 -35.183353  -1.952994
Si  -19.819825   1.420513  -0.372525
Kr    6.007677 -30.546788  15.489220
Zr  -38.206674  21.932281   5.325855
F   -33.369633  24.483141  -4.294078
Ba  -24.985360  20.531803 -10.155457
As  -16.581198 -19.319825  23.574722
I    32.608525   5.285287  -7.725217
Hg  -12.435586  -2.065113 -43.661621
Au  -31.244093 -24.683909  -7.819088
O    27.856668   9.176598  27.070529
Li  -21.108693  39.043491  -4.619120
H    41.721723  -5.619754  -2.595591
Ca  -14.706327  21.387388  26.538617
Dy   13.401413 -26.795387 -22.313095
Pr   10.313958   3.696151 -15.867137
W     2.493203  -7.112015   6.327336
Tb   -9.683137 -23.895748 -15.681878
Er   11.982065 -31.078715  17.340405
Po   13.508542  -7.382219 -33.123863
Ce   -3.202697 -23.936520 -10.516615
Cs   -3.864289 -25.303198 -35.931105
Ar   20.843183   9.835041  29.917112
Ca   -3.902575  43.532012   4.488818
Ba  -20.942533 -31.988339 -21.181840
Pb  -32.736423  14.627681  13.644673
Sc  -38.240798   9.451670  10.261750
Gd   37.766470 -10.561531   9.122040
Sn   -2.494909 -26.215167 -32.313948
Bi   30.655563  14.224848 -17.413335
Ag  -14.939684 -19.486848  24.326704
Mo   -6.051809  -4.048589  12.099364
Co    8.617578 -28.004113 -31.712938
Ta    6.586954   5.334709   9.408076
Re   12.013996  34.377131  20.409304
Tb   18.964206 -20.987857  26.811229
Ho   -8.510810 -27.625952  21.626094
Cs   11.072340 -11.979692  14.332915
Mg    1.262125 -34.171995 -12.145346
Ga  -14.051626  -2.840308 -15.868424
C   -34.859508  20.623506 -11.776140
Yb  -18.920296 -40.265202  -1.769068
Rn  -22.652716  13.298098 -30.178300
Na   -9.392375  35.835047 -22.652366
Ba   20.219764 -25.757008   4.145202
Br  -37.280848  -2.691171  21.211762
Mo  -23.674947  15.136121 -25.539093
Ar    1.655962   4.018011 -35.341337
P    35.845451  -4.148696  13.398503
Ti   -2.025907 -26.937207 -20.145122
Er   18.138185  23.162865 -17.671968
Hg  -15.239021 -24.668005  -5.042362
Br  -32.938968  -6.184120   5.012062
Te  -18.225389   8.267805 -35.064085
Ne  -32.247268 -12.187036  15.669718
Hf  -15.283913 -31.479412  -6.971420
Mo   -1.621897 -10.847953 -24.331612
He    3.328422  12.710676   5.301631
Rh   -4.714182  15.462966  -2.121578
Tm  -10.620018  38.839489  13.827338
La   -4.913356  19.564732 -36.848025
Ni   -6.628863  -4.960038  44.092486
Hf    4.081134 -29.305818 -32.432631
Co  -14.557795 -25.187071 -19.471961
Ce    3.748370  33.299356   8.621527
Co   27.885552 -30.182897 -14.763731
In   -9.281145  18.896261  30.851359
Ni   30.671282 -23.594737 -10.280581
Er    3.898863   4.618189  25.356716
Pm    9.436652  23.731469  -8.274721
Er  -15.421243  -8.371590  11.880528
Pm  -14.955382  28.124923 -19.747886
Nb   28.337679 -12.682359 -24.104043
C   -37.668181  -2.594723  22.872552
Gd   -4.417614  -4.904192   5.753056
Sc   28.728693 -23.521323  23.993262
Sn   19.103430  -7.584176  29.458892
Be   25.909789   8.281650 -23.330324
Sr   20.471005   3.239003   0.525628
In   -4.607083  16.267376  26.017772
Ir  -27.057730  10.510819 -23.185358
Co   35.090331  12.281464  18.154142
B    25.412474 -24.116784  23.454169
Pb   18.536814   2.513029 -37.854946
Tb    3.202917 -21.701073 -25.677905
Ba  -15.798597 -14.468224  18.917460
B    11.960061   6.916590  31.039350
Pd   18.222402 -12.602603 -34.746082
I    22.544355 -18.215897 -11.773775
Zr   11.058110  -5.533875 -29.964556
V     6.579749  14.378195  -9.395775
Te   20.149854 -34.943775  17.445509
Re    0.529535  38.904369 -19.828095
Pt    6.033851  35.834667  -6.800706
Tl   -7.421995 -11.688429 -18.846669
Ar   20.670554 -18.944039  20.911377
Ir   -2.986672  13.309911  13.832454
Rb   10.099203 -24.750995 -21.623512
Si    1.192590  22.552171  -3.963644
Ho    0.327110  13.336674 -29.257434
Eu  -37.040099  15.018778   5.860300
Pb   -1.081795  -7.470376  -9.778016
Cd  -39.400384 -17.790722  10.988522
Au    4.370342  23.481369 -11.546668
Br   14.548452  22.880481 -17.546907
Pb  -25.269902 -30.118354  20.432054
Y    26.539454  14.318202   2.687851
Lu   -9.114233   5.328567 -30.685455
Se    8.878333   1.420973  12.584160
Ho   -3.772976 -29.785465 -31.197853
Pm  -12.059647   4.929534  34.287273
Ce  -12.706070  28.565156 -27.119437
Sc   14.245817 -19.017123 -35.560426
S   -26.316088 -16.733010  -5.919870
Pb  -32.908039  -6.399559   8.428104
Sn    6.132290   7.503541   6.370772
In   25.818440   5.152188 -14.323432
Lu  -19.777366  15.880432  25.417692
Re   17.556411 -28.501222 -12.300175
Ge   21.061219  -7.745419 -21.825660
Si   -2.062935 -26.862628  33.537479
At    8.619997   4.472697  26.729351
Ag   -7.682214  23.120129   0.905220
Re  -25.442841  34.252304  13.989452
Hg  -29.470656  19.742035 -22.065568
Lu  -13.471584 -29.483111  26.832779
At   16.804148  22.671281  34.045306
Os  -16.124413   9.960275 -34.358729
Sm   30.848831  -4.859162 -21.412344
Dy    7.738566  23.861981 -29.198034
Ti   12.495694 -18.523176   8.369696
Mg    3.278366  -0.727804  11.997912
Ge   -9.074840 -25.855963  21.227847
Si    1.415327 -13.751101 -13.894122
Ca  -35.879970   2.399468  23.121758
La   -1.174501 -17.232577  -9.089714
Gd    2.341930   2.641490  -1.928502
Co  -20.740580 -34.648802  14.209992
Po   11.753775  36.953167 -22.968703
Cd   12.744941  -7.841001  -8.362316
Ne    4.727547   7.780436 -38.913609
Pd   38.979683  16.463815  -7.849023
Pd   37.208117   1.507152  20.123482
Zn   22.665136  13.197966   0.048403
Mn   22.795169 -12.766092 -25.239595
Ba    1.731483  12.066946  30.352082
B   -25.345001  26.808155   6.753065
V    -2.673709  -5.731520  -0.548613
Tl  -17.887452 -32.075785  16.137417
Zn  -10.940885  16.719078 -31.701215
Ca   24.768429 -27.904414   4.790599
Tc   13.245019  30.146347  31.003847
Co    5.107479 -11.832505  13.779153
S   -33.607418  23.470287   5.730374
Pd   -3.487555   6.689433  27.786450
Se    5.033768   7.691824 -14.073445
Mg   16.695349  39.279428   6.612530
Os   12.158932   0.114221  30.560174
Dy  -27.527139  -0.946606  -8.599937
F   -20.999970  -3.663250  14.992059
Re   -5.958257  26.665390  -8.815695
Br   29.343881 -25.843716  21.953788
Lu    1.329633  34.068063 -23.240246
W    21.797383   2.619044  24.939229
La   26.921797   1.227044   8.915565
Ho    4.190349   7.829279  16.398996
Be   27.221036  -7.532442 -17.682882
He  -22.023354  -2.099340  -4.184714
W   -13.846437   7.389435  29.553416
Ne  -23.028988  13.696528  24.874360
Sn   -9.313494 -30.884132 -13.742821
Sr  -31.720027  14.515348  -5.441594
Cd   -1.420864  21.526920  37.925981
Pb   10.204279 -14.377828  -0.266197
Br  -33.473723   5.813085  19.617900
Ni    5.713671  36.583702  -2.984589
Ar    0.792163   4.295373  33.849991
Al  -11.345596   9.254482 -11.154846
Al  -19.159744  22.915210  26.178601
Ta  -16.240686  15.696602 -13.544642
Tm  -27.351648   9.549527 -26.195376
Rb    7.963591   5.600970  -6.183562
Mn  -43.274888  -9.386952   6.826311
Cs    8.044874   6.584213  26.022001
Rn   15.780433   8.562175  -6.040429
At    5.812431 -13.478440  -3.523617
I     3.894063  -1.325033  18.550896
Sn   15.655384  -2.090015  27.678740
Cr   22.881093   9.650107  18.922655
Ag  -12.071538  12.604918  15.015592
Ce  -26.137050  -8.342756 -28.976098
Ca   -0.830728  19.369278 -36.565856
Er   -8.448575 -25.951375  36.636833
Hf  -36.434457 -20.512553  -5.545511
Ar  -26.527128   1.762558  -3.482647
Cl    3.889669 -27.046832 -35.984464
S    22.788169  11.054586   3.404036
Mn   37.625149  10.913264  -2.368515
Ga   26.048800  -3.157513 -35.558365
Zn    7.445623 -28.387241 -34.019088
Tc   21.486645 -28.343931  -0.125877
B   -23.001781   7.404015 -15.747726
Lu   41.596933 -14.389284   0.957604
Te   -2.919009  -3.142037   3.881197
Tm   13.762014 -31.767236   3.901783
As   41.733168  -4.936228  -3.881677
Po   31.008994   0.337069 -14.938478
Ir   10.661091   1.866417 -25.123941
Sc   21.119697  34.268707  -2.008826
Kr  -16.243858   6.016343  12.983986
Se  -40.354882 -10.761709  14.166051
In   -7.636961 -40.104499   3.729003
Na  -38.973299   1.789031   3.938395
Nb   17.358320  36.658783   7.545190
Ga   -7.886059   6.141482  37.057641
Eu   21.557869   5.230809   2.015498
Nb   28.166709  10.304993  28.629785
Ne    9.438807  30.724185   9.432741
Fe   -6.812236  -1.666857  12.378498
Al  -17.370476  -1.211343   8.886863
Cr   17.754788  10.478221  21.812424
Tb    7.160222 -26.857170   1.703869
Pm   13.544470  -6.343711  42.904070
Cd   40.191484  -7.580526 -20.181883
V    33.567052  24.969096  10.101072
Zr   -9.221546  -3.488931  34.499717
Cu   26.222189  12.305179 -27.151372
Pt    6.201255  22.675217 -18.206168
Cl  -15.831491   7.005795  38.765388
Be    4.259260 -10.087723  36.279440
Nb    1.083419 -39.600690  -5.943142
Sm   40.851698  -5.624044   7.392166
Bi  -12.272792  37.478893  16.660316
Kr   15.400449 -14.240335 -14.259760
Si   10.376758   3.200722 -34.290996
Se   19.633481  29.784951  22.619035
V    16.485009 -32.570183 -12.606919
Hg   22.503696  -0.840401  -5.836585
Bi  -30.716735  19.551874  -3.998283
Nd   23.676071  18.174225  29.875887
Ga   26.752536 -26.396711 -18.949436
Se   -1.023671  -2.803325  33.751019
Pt   -1.478251  11.651393  29.635279
Te  -34.226182  14.963976  -8.575775
Cr   12.522579  32.256472  -8.234129
Tc  -24.150501  19.772127  23.683861
Ru  -27.665675  -2.729456  -7.794146
Mg   15.992350  14.084886 -39.016683
Nd   11.325504 -14.400056 -24.264468
Ge   33.994222  -5.171446 -15.227806
Cu  -32.496521  -2.485998  11.370750
Zn   -0.840685  -1.158780 -13.255619
At   21.157803  -3.785551 -33.914477
Sn   21.452022   3.892248   4.523669
Rn  -16.329358  31.866477  11.741895
Pt    4.262822  -6.128171  25.049240
Zr  -35.098720 -10.781499  14.079454
Po    7.759925  -4.054398 -43.511637
Ni    2.785326  14.570694  18.323189
Br   11.111765   5.877023  -9.263042
At  -18.331878  37.798573 -11.686913
Mn  -30.868370   4.547821  12.991783
Hf   28.140044  21.093248  -6.043666
Sr   -0.656364  18.349269  -1.672721
Eu  -15.818759  30.048624  -0.010595
Cl    4.080079  11.170416  17.546131
Cr   16.417191 -35.676840 -16.479976
Kr  -16.232285  23.325788  20.720234
Dy   -8.163271   7.443359  -7.111016
In  -22.275106 -24.190987  -4.898748
Pt    2.110181 -12.667545   1.737873
At   40.860184 -15.155351  -3.095879
Pm   15.051050   3.243470   2.513011
Sn   -5.486641  19.530782 -16.993221
Pr  -37.129889  14.209696  14.580352
Ir    1.653142  24.285841  -8.995432
Fe   -4.392711 -28.556983  24.349243
Pt   21.385013   0.541483  13.763493
P    17.209897  34.648893   4.487990
Xe    0.363163 -13.690619 -35.501495
Pt   -0.237942 -22.753467  -9.330249
Al  -27.674414  -0.105686  10.606998
Pd  -19.156171 -25.809841  -5.865598
Lu  -18.186717  -3.682361  41.305159
Kr   25.891589  17.334429   7.169076
Sn    3.146750 -41.001674 -12.317261
Na   24.224396  -3.219359  -8.678953
Fe  -23.591401   2.445378 -22.186854
Ar  -18.672455  10.472490  31.290635
Ar  -32.969523  12.721515 -18.699000
Mn    0.622198 -25.658467  10.605772
Tm  -19.346516  -6.299551  -6.034379
Xe   22.237116  -3.645765  38.982329
S    11.267974  10.262863  18.784520
F    28.746643  18.657208  26.610201
Cs   -3.990170  11.493832  18.195707
Yb  -32.192015  -1.219645  20.762226
Si  -12.956498 -18.511506 -36.728274
Fe  -28.446365 -27.007215   1.046370
Pm   -9.863459  -2.573408 -26.470723
Gd   13.046637  12.631633  36.660147
Pr    1.420261 -28.775644 -25.871334
K     1.256833 -19.976329 -13.705196
Be   -8.590271   2.329928  -5.354920
Yb   -0.419600  41.715103  -2.614415
Hf   11.907282  38.414819 -15.657400
Tc  -18.455005 -14.076915  -7.388889
Sc   -9.238089  40.265233  -7.928660
He    2.854101 -30.430378 -21.713498
Al   12.991810  -4.485160  -9.818641
B    19.055036  27.995825  17.013623
Xe   22.388059   0.268344 -32.306470
V   -19.522159  -4.979900  20.878827
Ne   37.893957  -9.891258  17.460741
Ge   31.136452  -4.821986  -5.851250
Sr  -28.647866  30.599978  11.019785
Ne   10.168084 -11.784341   0.349230
Sb  -29.842681 -15.538409   7.611702
Sb   23.964671 -30.318638  23.297013
Cd   -0.172887  28.543849 -11.727392
Cd    7.796487 -15.877245  -4.673994
Mg   -4.903500   7.849364  -3.639368
Zr    0.627182 -18.952168 -18.427496
Rh   17.664759  33.211461  24.425967
Mg   19.106974 -13.013917  39.157459
Eu   -0.106935   5.662129  -6.225610
Pm   19.629608  27.566262 -11.052784
Cl  -29.992756  23.984818  22.894288
He   34.708166  -0.645321 -17.074133
Ir   -3.839383  -5.600242  26.676050
Mo   -5.097692 -43.773903  -4.062587
Rh   -7.152262  22.075090  38.585000
Xe   31.794440  13.284106 -28.507119
Lu   -9.710205 -39.263070  19.011063
Ru    9.953063 -29.247195 -33.667758
Gd   10.458254  15.101662  39.519619
Ce  -11.568105  22.450278  22.058811
In  -24.077737  17.482938 -27.913212
Ar  -19.069311  26.424658  30.818620
Zr   24.380088  10.427702 -23.895129
Ba   26.184738 -13.472779  -8.734079
O     2.784250  16.984677  23.005157
Po    4.596388  -4.969827   2.695383
Pm   18.244143 -25.057885   5.485935
H    -3.396667 -34.939033  17.009203
Ni  -26.649994  33.018750  -4.294128
Cs   -3.193078 -28.664352  23.762796
Ba    7.861937  14.653950  19.898679
Tb   24.233033 -12.379408  19.340855
K    19.812916   2.427334   8.958578
Yb   10.256552 -42.292700  -2.514241
Cs   22.086519  11.580994   9.157862
Po    2.992772  -4.007967 -13.572638
Cr   27.431286 -22.541958   0.431855
Rn   -3.875240  25.635459  31.730346
Mn   -5.102498 -18.764019 -24.610963
He   10.021829 -10.340316 -17.920752
Eu   -5.087745  -6.779157  38.370916
Pb   38.931118  -8.409673 -19.167831
Sc  -13.078643  32.570528  -7.488814
Au  -28.803635 -18.635865   7.672765
Pb    5.333456   6.055408  44.550667
Y    19.892140  -9.668422  24.271948
Be   -9.331316   6.515168 -36.655653
Rh  -26.934953 -18.748055  -9.910484
Po  -23.748463  -3.371868 -13.571359
Hf   -2.695508 -18.763183  27.114031
Mo   14.736741 -14.698588  26.778408
Cr   -7.177370   4.322170 -20.112416
Fe    8.031313 -29.575217 -31.782670
Pr   -9.006381  -0.862684  22.676120
Nb   -3.236413 -33.458527 -18.065200
Pd   -9.864390 -19.075733 -29.817385
Yb    8.030905  32.233923  -7.193192
Pt    6.157705 -27.478457 -31.341375
Ca   22.857044  28.692638 -16.340149
Rn   17.383748 -11.885102 -15.179280
Rb   19.801131 -13.609764 -13.534953
Gd   17.328021 -16.065017  -5.685824
Sr  -11.081975 -10.660936  31.264831
Mn   28.815252   7.853447 -14.013928
Cu   -2.647928  10.298383 -40.714548
Nb   -2.814792 -18.778681  14.820653
La    2.245265  10.065780 -21.315770
B     7.622496 -42.495081  -1.224971
Zn    6.696750   9.231844   8.417763
Bi   14.463550   5.061687  28.169937
Er   -2.992872 -22.282151 -19.257646
C    11.843509  36.228713  23.013196
Sc  -17.838104 -23.027273  20.684482
Na   35.829450  20.244149 -12.412597
Co  -18.079010 -11.048761  34.391113
Na    2.405186 -36.398248 -20.624599
Gd    2.423299  32.660494   4.224932
Ti   33.065234 -24.480193  -4.683170
Lu   22.303317 -19.116280  26.352116
La  -15.333575 -28.077995 -15.266674
Cd    0.339327   0.831873 -40.499894
At   17.568449 -13.906876  16.902869
Nd   26.554072   5.227039  11.219640
Mg   -2.521994  -6.191314  19.595018
Re    6.062028  -3.956679  44.446801
Zn   -4.406818   5.092618  -2.073030
Co    3.797198  -6.500736 -14.121004
Tm  -15.278828 -42.662207  -4.662085
H    15.998486  17.128160  -9.487090
Sn  -27.767696   7.763198  26.929200
W   -10.180443 -33.830703  12.195400
N   -11.750238  -0.063560 -23.305028
Tc   -3.550815  -8.230986 -28.460993
Co  -39.757404   1.719061 -21.673913
Ho  -13.860989 -14.203602  18.674489
Ru   29.389389  -0.231265  17.336697
Ba  -19.293308  36.361573 -11.100596
Be   12.445262  30.320767 -27.696517
Na   12.884798 -27.257071   9.871231
Ba   24.488956 -22.147248 -20.767369
Yb   10.328852 -10.658280 -27.262640
Zn   15.267608  -4.989169 -35.101615
Al  -18.461515 -40.778750  -8.722984
V   -16.009916  27.988883   1.662086
Te  -24.537274  -9.352732  29.497116
F    -8.522399   9.359455  -6.006961
Tm  -23.007992  10.780550 -29.661318
Ga  -38.378652  -8.235222 -17.128732
Hf   27.399219 -29.371821   1.080367
P    27.977356  10.781882  12.594434
Ir   23.470118  19.321592  33.439277
Be   -3.745059  17.306323 -14.764683
He   14.989849 -14.107419  12.995656
Er    2.009773  12.627628  -0.151559
Ho  -17.341468  20.562924  -4.931772
P   -26.145470  28.650574   7.841561
Er   -3.720657  41.055646  19.489555
Sc   24.127573  12.871070  28.923337
Te  -40.296620  -3.651009 -13.548527
Sm   -9.716443  -7.438364  43.238193
Dy   -4.434573 -31.700925   6.924735
Ne   22.696054   5.407182 -17.326371
Sr    5.328966  22.248118  21.786501
S   -22.757645 -24.721902  11.560218
Nd    1.147003 -26.606540 -22.697532
K     5.039565  20.350745 -22.276756
Rb  -16.939660  10.607007 -19.785414
Ne  -16.182037 -25.452716 -17.226984
Si    6.767709  -6.551992 -43.721043
V   -21.822089   5.910017  33.350559
Gd  -17.961717 -10.998202  25.650218
Sn   24.482388 -20.162199  -2.256005
Li    5.188821  25.581919 -26.036712
Ba   23.286381  -4.577244   0.060060
Cr    8.491962   4.622874  13.358870
H     6.889179 -27.390071 -23.589807
Ta   18.388262  -7.394131 -28.207256
Lu   22.088198  15.583424 -20.972199
Co  -20.470113   8.743394  37.711038
At   -4.789085  10.830659  -2.343238
Nd  -13.210184   4.082502  -6.404967
Cd   32.326576  -8.865678  -3.760012
Er  -17.945043 -32.960079   6.793680
Gd    3.523684  20.493884  35.005941
C    32.805146  -5.975805  10.179412
Mn  -14.410634 -35.720720 -17.125405
Cl   -2.981544 -11.825172  18.992122
Y   -10.420130  14.788925  -1.538972
Sb  -17.589642  10.193125 -40.871259
Hf   -2.692578  -3.614160  41.369628
Mg  -23.604275 -21.951015 -30.578383
Al   17.604834   8.747259  28.162546
Kr  -11.875170 -36.451586 -14.437255
K   -10.289221  25.196525 -24.930855
Rh   32.696288  -3.779646  14.937572
Pr  -31.090342  -0.339041  33.264631
Ir    7.733325  33.182493 -15.257182
Si   27.161312  24.002509 -21.102878
Si   12.925727 -26.988767 -24.411545
Dy  -22.020653   4.284675 -32.217028
Kr   19.478596  32.100636 -25.335578
Tl   23.919275  15.295318  25.818352
Lu   27.047656  10.731950 -22.985541
Ru  -34.967199  12.697393   7.174601
Ir  -26.231915   5.440413  -5.632613
Sr   -2.519338 -16.991967   5.631002
N    27.492127 -12.996663  11.112656
Pd   24.267676  14.515550   7.162055
Os  -23.756056 -20.061269  -6.415298
Pd   16.983002  22.191046  28.235939
Cs   -5.867965  -5.147623  11.972897
Pr   18.811329  14.809953 -21.064083
Nb   14.438330  -2.413312  -1.575331
Sr  -19.702613 -11.718004  -1.819223
Be  -30.948711  13.891101  27.828255
Be   30.457686   3.812612  17.345347
Cd   -0.087156 -14.193168  -7.751153
Sn   44.119024  -5.512741  -8.340694
He  -16.535237   2.035964 -30.724519
Tb   13.497922   2.768114   9.451839
Dy  -45.269480  -2.489864   0.470028
La    0.621394 -17.292987  15.312429
Xe   30.717140  11.574720 -12.062255
Tl    2.653072 -30.000443 -31.390595
Cs   35.831907 -24.184572  -6.304526
Kr   18.439655  -4.830310   3.885824
I    -3.877320  25.370889  23.529003
Ho  -40.185014   3.369416 -11.429564
At  -16.789445  22.877871 -20.487467
Nb    8.941306  16.979710 -11.318229
Pm   16.744940  -3.832130 -38.495812
Y   -24.578335 -22.282094   6.265886
Nd  -18.549097  14.861000  -8.784343
At   16.707460 -22.555490 -31.590846
Pm  -24.714809  -2.057895  19.650040
Ho   -6.319794 -26.740171 -10.796343
In    4.504776 -39.403115  -8.346632
Kr    9.072942   3.445262  43.939220
Pr   -0.777633 -12.743653  28.731684
Eu   29.113447 -20.264472 -21.552909
H     9.195088   1.906312  17.423143
Tc   13.830841  25.282934  10.402807
Xe   -7.541036 -30.553405 -31.190886
I     2.837819 -15.478444  23.706324
Mn  -29.101137 -20.870990 -17.588486
Cu   38.944894   0.762566   1.641906
Ru   13.680375 -10.669714 -38.649642
Lu   16.440903   1.332629 -16.891585
Ce  -22.552463  -3.863770  10.722120
Sm   -6.139113 -29.667367 -15.390219
F   -28.073425  -9.376170  -7.521280
W   -19.326882  12.355935 -30.863656
B     4.757587  39.761304   8.037043
Re  -29.444518   1.148073 -10.422412
Nb  -24.919567  -4.096631  -6.450823
Mn   -7.543667 -29.012110 -12.693861
Dy   27.894875  26.320509  -4.549982
Rb    8.484230  -6.632717  34.337747
Te    5.088047 -36.165063  -6.804380
At    1.013836 -33.197338  18.647517
Kr    0.238632  -7.491355  31.855550
W   -37.145109   9.727538   7.391508
Ho  -33.409198  -9.200031  23.237680
Te   24.571377  11.958715 -36.228871
Yb   -7.715739  35.804574   8.704954
Lu    2.524363  19.892610  38.373088
Bi    8.599162 -12.732313   1.697778
At  -11.511106 -24.996599  26.885117
N     1.351871   4.022689   6.454106
Sr    9.758976  -0.024498 -36.093320
Ti   25.489598   6.201365   7.058448
Yb  -14.830688 -24.708757 -22.807789
B     4.275631  25.970473 -13.046234
Pb  -23.225608  -7.740766  26.200907
Os  -32.830900  20.942856  12.391022
Ga    7.390159   0.809815  15.360947
Mo    8.038044 -13.203765   2.442706
Mn   42.170259  -3.973663   5.783707
F     1.926510  16.329112 -13.218060
S    -6.822806 -28.479861  28.766081
Nd   28.975023 -20.641423  25.806896
Br  -20.293901  -8.375612 -10.923846
Hg   -0.510755 -15.395658   5.137511
C   -28.301088  21.286709  -4.901286
Be   23.603306 -10.538026   9.466002
Er   -9.438614 -19.277077  23.798062
Tm  -41.750116  12.684462   8.512051
Yb  -31.137508 -14.398468 -22.289958
Gd  -13.137226 -24.610328 -10.696433
Yb  -14.573824 -40.623204  14.568908
Er   19.397913  13.041008  -9.492758
Cu   17.850470 -15.411255  23.722437
Rb    1.267922  -0.142320  17.939549
Mn   -6.916929  37.213056  18.967553
Mo   -4.323815 -20.983668 -15.155213
Ar   36.527166 -24.555378  -4.727022
Sc   -6.472838   2.724487 -13.630521
Li  -21.969959  19.845841  26.403924
Fe  -32.438183   4.982762   1.722775
Ar    3.126383 -22.990268   5.678125
Zr    4.459403   6.383498  -3.478475
At   37.671471  -3.820158  -9.470881
B   -16.433159  15.554775  10.355712
Sn   30.174122  -2.929846 -10.258429
Pd  -13.691185  43.219824   5.566869
F   -15.106872   4.274422  15.101717
Ir  -29.737760  -6.840562  -6.183413
Zn   18.269865 -19.245872  26.961862
Dy   34.411020 -20.607249 -19.870044
Ne   37.017869  16.818152  18.117909
Cl    1.859346 -26.288257 -16.170624
Cr  -18.361824  17.130845 -24.478409
Rh  -30.793507   6.694508  15.509822
Na  -15.311182   1.297827 -16.292177
Pt   -6.107302  10.341977  32.409117
Kr   -0.457918   8.059197  12.026438
Ca  -10.055235 -41.562022  -9.743859
S    -0.661123   4.274065  -3.843828
P   -11.470722 -19.614295 -24.195014
At  -19.144886 -13.514755  33.918019
Zr   22.203977  -2.814674   1.950405
Gd   -4.381864 -17.857151 -29.842630
I    16.744751 -21.539204  34.787100
Cl  -10.540963  23.500601  36.508280
Au   -4.439753 -23.078597  25.064561
W    25.572888 -18.026798   2.134147
Pt   38.159859 -15.492442  11.743651
Rn  -20.161307  -1.900179   7.670828
Co   41.191650  -0.538105   0.760012
Sr   19.758280  10.951661  -4.323093
Mn  -20.096452  39.725242   1.183049
Tb    7.803564 -32.558063 -10.523313
Ne   -1.805400  15.430984 -35.889891
Mo   20.022019   8.044555  24.824583
H     8.394795   5.119214 -10.424755
Mn    1.255958  42.664462   7.970662
W   -11.094527  26.005862  -6.303932
Re  -36.600194   2.320869 -11.698258
Mn  -15.165755 -10.319294 -32.800459
Ar  -13.872938   3.156658  33.531839
Te   35.037509 -18.280928   6.178327
Hf  -19.581845 -19.877196   2.802089
Po    2.238121 -36.904213  15.553508
Eu  -27.049166  -7.278273  34.965351
F   -18.862547 -12.049710   7.324116
Nb    7.916154   3.466997 -13.496077
Tl   -4.171218 -23.219953  37.666112
Zr   25.454153  10.115188  17.188471
Mo   -7.164180 -10.097159   1.723040
Tc  -10.465138 -16.398462 -19.786071
C   -11.813576 -41.683675  -6.955343
Te   13.586594 -33.500837  -6.834517
He   -7.073632  28.306398 -26.299130
Cu    8.537284 -36.501278 -17.875398
P   -32.808267 -27.767124 -11.963795
Fe  -27.780014   2.022990  33.472771
Kr   21.163381 -16.125276  31.850615
Cu   27.370126  26.547905 -22.287348
Re   23.525042  23.751684  15.221044
Lu   39.798797 -15.632044   0.774520
S     0.555476  16.904995 -15.065236
Re   22.346951  13.689099  28.061631
Ar   18.224815   8.791348   1.460139
Mo    7.482826  -6.361749  41.670142
V    -7.652345 -15.573183  22.381330
Po   22.106908 -27.625584  -5.712962
In  -18.023749   9.269092 -30.570282
P   -32.024870  -4.498908  11.160303
Ar    8.592319 -23.389743  -7.087102
Sb   42.816258  13.760935  -0.481659
O    19.621627  23.744017  -6.439960
Ga    6.490867  29.941289  20.999952
Fe  -37.374352  17.452058 -14.298016
Te    7.319406  26.489567  17.599719
Cr  -23.239282 -12.773469 -31.863591
Ga   -2.319025 -28.568642  20.117613
Pr   28.409619  -4.043733 -34.011877
W    27.250821 -28.589638  -1.050974
Na  -12.763152  17.676877  16.465880
Eu  -25.484995 -15.382855   6.742370
Li   -7.953231 -31.418986 -12.348278
Mn   35.440107  19.743195  -9.738788
Zn  -15.051495   2.729942  -3.060186
Sm    9.057478 -25.406909 -22.946613
Pr   30.324728   7.132695  17.657060
Li    5.896834 -20.490910 -38.937901
Hf   -7.479859  11.626670   0.662757
At    8.185293 -10.053168  37.311158
Kr   -0.064224  -0.149374  43.028194
Ce  -33.465610  15.441521   5.588804
K    13.291988  25.592266  17.289937
Fe   26.834256  12.407913 -24.770467
Pb   22.891396 -11.830011  17.072337
Mg  -11.400945  -8.283865   1.929769
He  -31.684328 -25.966466  -9.380572
Cs  -16.284360  24.181911 -16.692065
Hg  -36.195411   7.612816 -22.932882
Cl    1.710561  41.535974   9.282548
Sn   -1.963917  -1.402925 -29.637316
B    38.118216 -15.743276  -4.644436
Co  -12.898496 -29.418627 -17.062829
O    22.407564   4.702084  -7.198708
Nb  -11.212775  12.647554 -29.654443
O   -19.835161 -28.794309  17.289279
Kr  -28.029785  29.716879  15.900189
Rh  -18.741269 -12.211365  36.232931
Re    6.410400  32.250464 -10.256521
W    21.522893 -18.084466 -35.725650
W     4.409097 -13.525693 -38.539375
V     9.811153 -41.601757 -10.584431
In  -39.833282   7.780926  20.668571
Cr  -35.427855 -17.068297 -12.616956
Pm  -10.759635  25.751946 -28.556836
Ge    2.513377  19.845508  32.443388
Cs   26.333338  27.420517 -12.736901
Al   13.772758 -30.712367  -1.573978
Tc   -4.564054 -17.557759  25.052395
Yb   -2.876574 -28.686544  11.454031
Mn   33.309595  22.331398 -13.227970
Pm   37.622268  -2.247672 -25.083115
P    15.507882  -2.786347 -20.922772
Sc    0.693062  11.291178   0.659907
Rh  -24.048934 -14.840594 -32.806262
S    14.816539  -9.181774  11.286834
Lu  -14.580088   7.055594 -33.334905
Ru  -13.316576  21.298222 -36.428853
Cr   -3.125976 -11.052457   6.847200
Ga   28.915111  -6.248377  14.092784
S    -7.022715  16.194520 -23.906288
As   17.814199  20.998445 -17.079268
Ge   16.134740   4.994050  -6.276747
Xe   26.726836 -29.379449  -1.618713
K    20.191642 -17.449814  -0.243317
In  -29.313115  12.151933   6.007879
B     1.961788  33.732469   4.913469
Ni  -23.566706 -12.916414  23.851038
Gd   22.973544  -8.813000  21.853204
Li   14.935864  32.772559   8.884276
Ba    8.629966  -1.572417  16.205927
Nb   35.042710  -1.006319  22.376344
Re  -19.498075  11.118051 -13.164514
Sm  -19.128775  -6.515994 -29.492605
Pb    0.314734  16.854118 -37.727212
Ca   -7.399594 -16.367652  -6.439681
O   -19.485679 -34.692845 -14.747002
Sb   24.673575   7.037792  26.520271
S    33.277620  16.008818 -10.293874
Rb  -11.310967  39.186491  15.445839
Se  -18.439380  20.382383  33.560194
Cu   -3.225027  23.353899 -14.883251
C     1.280464 -23.861519 -17.522391
Y    18.589046 -13.927278 -16.224929
Cr   12.619952  23.269104  27.145577
Y    16.599014   0.733018 -42.346995
Si  -31.868747   4.888282  -5.906566
Ni    7.700011  29.738620  26.348541
Ga    9.298671  13.988849 -13.459155
At    9.986447 -22.934848  12.108338
Sc  -12.490411  34.902179  11.050692
Ar   13.765399 -27.918074   3.234338
H   -23.875447 -16.952370 -32.199982
Na   28.627863   6.448861 -25.366242
Bi    0.868178 -10.758901 -16.317374
W     0.623027  32.375708   8.066989
Ti   41.477288  -2.146349   6.087556
Ni    5.659150 -34.755837  -8.325653
H   -21.845272  17.916857 -34.516056
Ne    3.009480 -40.497533 -17.960757
Ti   -0.189904  36.314202 -26.909038
Te  -27.699517 -17.904098 -15.550231
Ca   37.903972  11.508785   6.580243
B   -26.284379   2.467524   6.954605
H   -18.119813  -2.832180  30.532479
Pt    5.671996   2.234877 -31.712143
Ir   20.843978 -12.152279  -2.207876
Ru   -9.896508 -25.017184  34.211934
Rn   27.106021  -3.510009  -8.754249
Pb  -19.707278 -26.361073 -13.521374
Ne  -23.811563   2.514377  14.631982
Si  -18.417306  22.567310 -31.956782
Cd   29.156848 -27.024917  10.541672
Tb  -31.745393  17.504017 -11.231881
Eu   24.448985 -24.107651 -20.986418
Ru   21.610061  18.132378 -25.911740
Mo   28.190744 -19.663737   6.879521
Sc  -10.863127   8.619626 -27.399357
Tc    4.042309 -23.601842  30.360128
Be   33.239311  -1.067113  21.957246
Pm   43.049079  -1.464725   7.376648
Mg   20.353654 -23.168082   2.424068
Zr   -0.194362 -32.689827  24.933087
Mo    3.386609  28.286980  22.969093
O    -2.447880 -21.888761  -7.540531
Cl    1.043723   4.148727  30.070615
Os  -32.451605  -9.908477  -2.666887
Ca    8.102164 -16.356568  -3.186708
Mn   -5.292681 -26.506453  15.093691
As  -23.859053  -4.737663  14.797414
Kr    6.259032  25.890431 -30.255084
Cl    0.749425   8.402662  35.906877
Nb    1.335498  11.327776  -8.882082
Ge    8.013525  23.899992  15.025944
F     3.440256  -1.380345  13.577742
La   -0.041702 -42.145349   4.813359
Rn   33.066636  21.635744  -8.454288
Cs   11.775128  11.337448  14.309873
Ni   10.257228  20.430360   9.078765
Sn  -15.849210 -18.211330 -31.436104
Hg   27.456142   0.785090  30.102547
Mn  -15.443656  15.345604  38.388051
Gd  -44.082606   3.818472  -6.105529
Co  -20.735169 -32.205645 -10.023792
Lu    9.335206  18.816363  31.191702
Cs   25.266631 -12.910642   0.872979
Rh   -9.589311  38.967940  15.240911
Ni  -19.523689   0.023465   6.336486
Pr   -4.207722   9.684211  13.643719
Mn  -10.497239  11.144222  40.413806
P   -28.068183  10.692603 -23.183550
Ca   25.655314   4.405479 -37.281953
Re   25.277404 -25.080444  24.548448
Ir   28.005861   2.310667  17.707698
I   -39.794351  12.833261  -6.225465
O    18.660925 -12.003384  23.201946
Cu   11.289106   5.424732 -16.125132
Yb   21.423703 -15.029038  -3.233154
Zn  -17.748821 -38.178671 -17.036682
Ta  -42.174313 -16.174192  -1.581410
Ge   -7.057820 -24.075586  -5.371623
He   15.813536 -17.754775 -16.451952
H    16.258578  25.473492  30.010149
Pt  -29.887462  22.750415  10.763279
Ce   10.407400  28.125635  12.324019
Ge   12.994937  -1.890607 -12.133903
S   -18.382703  -8.747314  12.678306
B    -9.185210   9.009786   7.879204
Tc  -13.627147  12.428209  21.706797
Os   11.673496  -0.801227  19.553010
Er  -15.522342  36.161802  -7.773178
Si   25.388682   1.590424  23.411618
Br   26.523435  17.799940  11.421650
Bi  -29.223593  10.447736 -14.192588
Na   10.049294  -5.576080 -35.371722
Sn   15.358837 -20.402800   0.957946
Pb   -7.271372 -33.647493  -4.846753
F     4.535262  38.927183  -1.288958
Nd  -26.246031  -3.927793 -22.459467
In   35.173545   0.539481 -15.502550
Ti    7.785870   7.265778  -3.156594
Pr   18.828423  12.745364  13.381705
Rn    0.620373 -28.481127 -21.109722
Pd   26.290052 -15.490059  13.982005
Cu   -2.614459  -8.419816   1.560738
Ti   14.030765 -25.070062 -31.422844
Sc   -2.757205   4.217323  -7.915121
Ho    5.224298 -11.993364  33.895101
K    -6.602842 -16.425986   8.211001
Bi   25.235528  12.078242  -2.835327
Lu  -27.689089  -3.801208   2.095271
Nd   30.674074   3.749665  23.066227
Ge   28.215220  11.820537 -27.399699
Gd    4.487292  29.881312 -17.462616
Tc   -6.814313  -0.214621  44.551001
Nd  -11.513394 -35.190580  -4.386639
P    -1.235372 -40.912783  -7.374456
Xe  -40.958998  15.587565  -2.705597
Ba   -9.113446  10.157586  36.594399
Ce  -21.943495  31.177795   1.850231
Mo   20.136718  20.959772 -15.960650
N    13.200406 -25.330702  25.969293
Mn   20.755179   7.509672  22.538943
Cu   22.618339  13.901857  36.771813
Rb   30.111448 -23.759397  -7.716649
Tl   20.352251  -1.595633   8.083951
Tl   11.933385   8.375613 -17.379531
Tb  -17.410494  13.211629  30.572312
Ir  -27.440289  25.663898   0.830289
Ta   14.311192  22.339181   4.144441
Co    5.045265  -1.415971 -24.815468
Hf  -16.618206 -35.270024  -9.902674
Sm  -10.282794 -41.688085  -3.812649
Ca  -26.552555 -19.534465 -13.686640
At   -8.436461   8.463684 -39.223550
Os   31.325420 -16.654285  15.848620
Rb    1.158342  15.072730 -24.691194
He  -34.989740  -5.039798  16.918083
Er   10.364061 -15.151931 -15.891295
I   -24.749270   2.605523 -29.879779
Ir   33.426323  24.673099  17.794637
Sm   -0.340529   7.051354 -30.593627
Tc   -6.287535 -16.668701 -36.387842
Cr    7.797039   0.255521   9.074830
Sb    1.053286 -27.296081 -19.411675
Y   -29.284584 -27.433546  20.690795
O    22.420363  -5.551889  18.838664
Bi  -21.851931 -24.830826   1.875172
Hf   18.059623  40.789009   6.080365
Pb  -20.534834  22.674746   2.931253
Ho   11.779366  39.624997  -7.910261
Fe   41.729584  -4.713432  -2.970634
Eu   37.524811  -1.111873  16.346615
Ir  -17.657952 -13.617742 -12.889553
Zr   -8.355896  22.462695 -26.540398
Ti   -2.419303  20.102563   5.689539
Yb   20.382194  29.993416 -12.663086
Dy  -35.763283   0.424827  16.096110
Mg   -5.625433 -15.753194  -3.890587
Xe  -33.244610  30.983185  -0.500444
Bi   -4.750894  -9.212989 -41.909647
Te   -5.119960 -12.025904  39.928307
K   -20.626730  -4.365139  38.183570
B   -24.065737  27.230890  -9.151400
Cs  -43.830754   4.920955  -1.228554
Ni   21.698374 -10.823160  19.242924
Sr   39.287643  12.564685   7.454422
Ni   12.336448  29.284465  30.778123
S   -25.919480 -25.253241  15.904653
Gd   -6.102400  -0.104477  25.496226
Au  -16.304518 -39.433273   2.849877
Na   19.370702  -4.022360   2.173927
Hg  -21.515394   7.685328  -6.573958
Pt  -17.716104   9.392304 -14.260011
Sr   -1.165376 -31.764965  15.975020
Eu   16.193927   9.842858 -32.320748
Si   32.459597 -18.034957  13.205779
Mo   18.785756  -1.247534  11.532087
Cu   23.857363 -21.691950  15.149785
Ga   29.838724  21.515798   6.587556
Se    9.861704  22.038609   0.303805
Se   27.254790   8.515380 -16.665371
Al   11.497542 -43.701564  -3.702973
F     5.538652  35.892030   3.119890
Tc  -15.868126 -17.346592   8.950280
Cu  -36.266827   4.092074 -13.771127
Ca  -24.786175  -3.591533 -18.231230
Be  -31.100031   4.227906  23.753569
Eu  -11.303226 -11.864867  -7.457202
Ag  -30.214490  13.240526 -24.860472
C    24.633133 -12.590186  -8.651577
Ca   42.258206  -2.989796   5.369083
Ru  -37.390525  -3.358067  11.102866
Se    7.508098  24.025189 -26.502426
Mo   24.093368  -1.651187  26.737939
Mo   -1.281099  24.859398  11.094579
Nd   30.807619   6.919346  -6.091344
Pr  -32.032541  -2.085671 -23.506228
Sm  -23.913474  26.140275   0.355048
Eu   21.114937 -17.169558 -17.105905
Li  -17.565705  -9.740966 -19.432385
S    10.788466 -17.220559 -34.757531
La   17.811321 -35.479864  21.485143
Na  -33.719383  27.643231  13.526000
Li   24.290067  24.101935 -13.298348
Sn   24.711179  14.457748 -11.042320
Pd  -25.629149  22.057231  24.819302
O    39.127143  15.920896   9.472406
O   -20.550782  29.129397  25.425164
Pt   -9.944728 -16.054335 -21.656947
Re   -7.316989 -20.105579  30.371780
Zr  -25.257814  14.473796   7.519395
Pt   -6.210715 -10.592199 -22.091308
H    25.019029  17.294829  21.964887
Cd  -22.088291 -15.594084  13.527931
Fe  -10.667327  10.640057   9.907471
S     7.938834   6.523601 -18.225648
Lu   29.349595  -8.891536 -31.649889
Ni  -25.964106  21.792283 -12.678227
Rh  -10.135314   4.408066  29.786169
Tb  -37.638357   3.209045   5.366378
Xe   18.494707 -11.102150 -37.071813
Fe    2.972564   8.666283 -25.764251
Ga   34.373222  12.759748   2.924152
Xe    2.679126   4.877438  11.467539
V   -30.427094  16.122807  26.424900
Pd   11.766708 -35.939024  -6.146785
P   -10.096151 -22.851724  17.733087
Nb    7.466832 -17.681710 -35.213338
At  -32.837211   4.963536  -7.859121
Mo    2.595717  -7.518864  38.252482
Pd  -30.970027   0.984461  33.400456
Ho   -3.554304 -27.953981 -17.779528
Ar   25.962343  -2.640460  30.406831
Os   -4.727337  36.886312  23.211739
Xe   -8.854309  18.155648  29.976167
Mo  -13.669186 -38.911167  -2.341982
Ir   -0.808308 -21.049592   5.295991
Sb  -23.185230  -7.698898  -0.465947
Nd  -20.932152 -24.480591   9.216124
Sb  -13.108361 -23.965672   6.387458
V    39.427544 -11.436486 -19.541551
W     0.025695  27.647228   0.867539
Y    13.326121  33.888081   0.674380
Cu   38.769938  -1.147065  -4.132689
Cd   18.406910   0.152101 -37.507585
Au   -3.872252   7.429751 -14.321347
Ti  -34.958347  -7.272221   2.645988
Se   -6.991438  -0.960013  44.305427
Mn   24.970515   9.009492 -28.101051
Mo   12.319000  41.751436  -7.134091
Zr   10.507549 -29.605905  26.525647
Tl   22.517145   4.455660  37.453487
Eu  -14.521924   6.710894  -7.997474
Mo    6.448742   0.271539  -8.931640
Mo    2.507648 -12.403159  35.042623
Mo   29.330429   1.564906 -24.099785
Ne   11.932562 -40.176610   2.585628
Si  -16.256810 -26.413435 -18.481038
S   -33.868932 -16.156492  18.627244
Ir   18.675343  -3.881848   4.556833
Sr   30.194127   2.664625  15.509632
Te  -35.183985  20.629493   9.155887
C     7.201218  11.341747  40.068065
Ga    6.015966  41.539453   2.015717
Nd   -0.869669  13.409962  28.099330
Au    6.150059  18.456297  30.434294
Al   32.518992  -0.220673 -11.424622
Po   41.396480  13.487862  11.971562
P    25.742174  25.014223  14.700150
Dy   -0.602488  36.973335 -13.680200
Ba  -10.555779  22.621642  12.182700
Li   15.246269  18.313054  -2.094112
Pb  -27.342066 -18.385903 -28.448291
Os   13.046201  -9.605785  39.206246
Ti   31.408213  -0.239604 -11.373776
C    10.843369 -29.864189 -26.739436
Tc    5.963445 -12.814169 -31.400909
Ru  -38.441092  -2.957288 -22.292202
W    24.283429 -27.086119   2.748463
Hg   27.239962 -16.885222 -27.809518
Pm    9.861984 -18.042787 -22.253470
Ar   25.284958  -7.966340  -3.026335
Ne   10.074966  33.538830  17.835551
S   -22.452342  10.846734  -6.816782
I    18.752187  27.000768  -3.153257
Ho   19.647428   7.071135 -30.185317
He  -28.063641 -12.571357  27.916247
Os  -16.270498 -15.836706  33.010298
Zn   18.784424 -14.866196  30.318279
Zn   24.192808  -3.584748 -29.579098
Ti  -30.329716  13.401711   1.626904
Er    8.027368 -12.454328 -29.320615
Zn  -19.128255 -15.203544 -35.136887
Ar  -12.023904 -20.434275 -32.333804
Mo   15.709264 -13.218475 -39.917117
Fe   -4.128605  -3.588888  18.518212
K    14.631435  -4.674929  21.687659
Fe   21.124055  19.751052  -4.287106
Mo   26.428168 -30.017885  13.668531
F   -37.403789   8.981829   2.404858
N    16.044309  21.434374  -8.989039
Ca  -16.134405  -5.036798 -38.040747
Zr  -13.401292 -43.287942   5.166471
Y   -30.231735   1.625100  30.135163
Sc  -12.547347  29.579144  15.565784
Li  -42.564132   8.688459   5.257776
Te    4.535670  32.256070   8.768185
Be  -15.092181 -16.786339  21.332958
Li    3.025567 -30.774028 -31.647657
Tb    2.619817   3.151199 -37.680428
P    -1.076243  -7.995712 -28.399496
Co   39.410416 -14.210925  -2.984127
Ge  -18.993321 -19.402323   1.136061
Si   18.240659  -5.289283  -7.610448
Ba   -5.763708  22.845254  34.429748
Ga   11.596730   4.553093 -43.890164
Fe  -20.743494  16.919081  -0.709788
Li    8.343460  32.522232  13.418571
Ga   -8.392305 -19.566016  32.218534
Yb  -20.607601   5.528538 -35.787371
P   -31.191386 -15.364098 -26.262252
Os  -19.623945  -0.282993 -39.577425
Se   -8.002075  37.232358  -4.087768
Cd   25.577779 -24.759807 -16.123851
Tl   16.240922  15.275713  19.904068
Au    7.859307 -14.140988  37.162594
Pb   -3.642474 -19.860878  -7.879632
K   -24.461930  37.649493   6.147727
B    20.111383  16.655010  -7.607349
N   -10.533996 -19.412661  30.510638
Xe   13.286596 -16.269499 -14.949133
Ir   16.351386  10.963409   4.521080
Ga   -4.564392 -31.327628  -6.296203
In   32.154847  -7.412082  29.009211
Br   20.665632 -22.567058 -28.225749
Re   33.871044  29.589293  -6.296610
Ta   28.750466 -27.985953 -14.827595
At  -33.835108 -10.467231 -25.597661
Sr   32.396094  16.019897   9.715169
Ti   18.730185  -3.265327 -13.205496
Ba  -38.870157  -7.499099  17.575637
Be    0.156346  40.628947 -11.649897
Ge  -12.728683 -13.930915  14.880433
Ho  -37.624841   4.478121   2.831721
Ba    2.763623 -11.035236  -6.838032
Ho   33.249952   9.264217 -10.933095
Be   36.388221 -10.791604   6.526586
Ni    1.510109 -26.681935  -4.230132
Pt  -32.515585 -13.560492  -7.756861
C    -7.364893  10.757525  12.082978
Au  -31.299538   8.888954  -7.478329
Nd   18.641810  -8.718602  29.340528
I     0.559253  -8.824809  21.408702
Zr   -2.341564  -8.404775  18.743459
Y   -22.140973 -30.306513 -21.974423
Zn  -41.108357  -3.432383 -16.957300
At  -35.487919   2.001201 -22.736768
Cs    8.861844 -36.912252   0.404373
Zr  -28.908981   6.384874 -31.136042
Ge   15.232160 -36.090981  16.122135
Te    7.648021 -25.678132   8.818500
Be    2.043942   0.841634  44.748443
Tm  -14.330270   4.532472  -3.858370
Tm  -24.736553 -20.178268 -31.021725
Ba   32.067573 -14.740818  19.607043
Ir  -12.231749   7.219938  23.941941
Rn    1.766628 -21.557795  -1.261127
Eu   34.405358   4.702641 -29.332568
Au   -8.181525   5.581511 -33.429063
Hf   23.905141  19.852112  16.526171
Cd   11.632608 -39.390588  15.481534
Be   -0.773182  21.021766 -28.818117
Cl  -10.214604  34.601898  17.369480
At   10.463125   8.577535  41.626215
Nd    0.502974  23.737651   4.077734
Pb   28.236390 -19.428491   3.231280
Ta    0.538507  22.354233 -26.239370
Na  -23.195115  24.075040  20.827246
Tc  -41.400358   0.887565  -3.818707
Tm   22.452318  -8.983813  17.503060
Sc    7.299621  30.474185  21.405659
Mg  -23.701005 -15.342467  28.695818
Pm   17.536769 -26.173480 -16.357780
Cr   10.390359   7.825405 -39.612253
Tm   23.795094 -24.894629  13.175017
Rn    2.080902  35.305561  19.935136
Tm   -6.287089   8.635515 -10.322180
O   -29.755159 -13.180102 -22.356016
Ti  -21.407372 -38.747521  10.723461
Bi   26.179808  -2.628290 -19.370647
Po   -0.776455 -35.751009  27.178208
Nb  -22.486458  26.442542 -14.881544
Cr  -26.367446  24.989420  -8.232101
Sr  -19.212343   4.935426 -20.241056
Co  -11.765440   9.411660  38.266506
Dy   15.937253 -25.662854  30.185260
Cs   12.313710 -28.619264   2.359637
Rn    2.197168  39.282855   2.375073
Pr  -22.953063 -19.279242 -22.682243
Bi   -5.632513   4.579633 -25.140863
Sb  -36.410112  -6.076894  -4.228720
In   21.738030 -33.935779 -14.471235
Ti    0.794417   6.586190 -41.394384
Nb  -23.325764 -13.314285  17.772144
Br  -11.153865   8.217579  -9.105148
Ar  -23.537249  28.786090 -11.483313
Pb  -43.539717  -5.272752   5.671403
V    34.820190   8.758592  21.297719
La   31.854690  18.824344 -17.164429
Ne   -4.761702  -1.479192   9.189994
V   -32.357343  25.592108  14.779724
Rn   -3.924901 -16.666124 -26.080965
I     0.299390 -33.070748  -7.551894
Ar   33.117724  -8.352686   4.819628
N    38.220593 -21.664507 -11.665500
Ho    8.388404  31.666862  21.923003
K   -20.920377   4.604286 -26.947087
Si   11.913867   8.144490  28.116398
V    -8.373412  27.872654   5.773808
Zr  -11.007808 -12.073481  37.492410
F    -1.341811  -6.656890 -10.613664
Xe  -12.914990  35.970306  13.093414
Nd   38.342086 -13.380298  -0.083237
K    34.868774 -24.713324  12.439957
Mo  -26.844775  19.277214   3.150843
Ti  -19.888635  -8.723728  -8.993899
Zn   26.048837  11.137113 -31.791594
Rh  -18.063112  -0.371409  -9.038988
Cl   -1.215183 -21.240066  31.650845
Ti   26.502391  -8.864553 -35.504691
Gd   25.010042  35.341612  -5.326230
K   -22.780967  11.880977 -12.997931
Zr    6.555166 -37.360454  -5.353976
I    -4.748188 -20.991303  36.849086
Hf   15.314008  16.099291  39.037883
Rb    2.020927  24.811838  17.463629
Pb   24.003732 -17.294878  -8.230539
Zn   10.767451 -28.488879  31.453257
Xe   33.591465 -11.651374  -1.726344
Cu   29.275483 -34.073921   6.955361
Tm    1.654417   9.030010 -38.361960
Re   -7.265040  16.540141 -40.568782
Bi   -7.326838   7.057671  13.753102
Dy   -5.594961 -23.307128 -24.879466
Sr   18.647722 -24.800732  -3.087392
Zn   26.418207   6.489501 -32.924363
Sr   18.257548  -7.709625 -18.287894
Br  -11.920355  25.910111 -28.922636
Rb  -40.261414   6.531037   6.146935
F    -7.695635  -7.359718 -30.241001
Pt  -21.140374 -21.923626  14.740038
Rh   -2.839671 -27.685052   6.706244
Si   23.009014 -19.504396 -29.040209
Pt   -2.595814 -19.507147 -31.920260
Ca   41.471837   4.794304  -7.014270
Nd   -7.923731 -14.973656  18.487628
Te    8.567636 -17.986485  19.343784
Pt   -5.316596 -31.297473  28.730199
Xe    9.394815  -5.404913 -27.303366
Tc   11.286283  -7.025976  24.894545
Cd  -12.465759  32.162254   7.262876
Pd   -5.193860  33.785109 -12.555179
Pt    2.463620  12.205645 -18.214119
Ni  -31.931814 -29.790245  -1.050378
Ne   24.532691 -15.950544 -26.582660
Re    3.544102  -6.043806  -8.376389
Cl  -10.996453 -31.960926   0.029429
Pm  -37.808436 -11.956846  20.393667
Co  -19.575833 -14.212141  24.987683
P   -20.771180 -27.925725  23.098742
Hf  -23.454679 -16.720299  34.068521
Dy   16.864135 -12.295388  -9.681227
Eu   40.782871  -4.046809  13.373399
Ta    4.714796 -10.117378 -16.274517
Ge  -24.955629   5.602501 -10.342332
Ar  -14.111131  11.364673   4.382073
Ca   16.011686   3.743570  18.627314
Hf   32.855627   6.452566   7.236603
Ag   31.180423   0.843899 -26.272642
Lu   -0.920844  24.113355  -6.238716
Kr   -9.390257  24.916991  35.049192
Pm  -39.406780 -12.839638  -8.727527
Cr   -2.610198  23.157774  -3.707481
Sn    4.979244  19.855063  -6.345916
Sr    1.888372  27.114816 -22.193606
Ge  -17.380256   7.847042   5.036059
Gd  -16.702556  34.861089  -7.687713
H    -9.325393 -35.289192  19.931634
Yb  -11.694416  -3.835895 -20.256907
Pm   -1.482624  33.939357  -6.139064
Ti   44.464780   4.694152  -1.931451
Mg   31.481920  -7.035639   5.653828
Be   23.448740  -8.052122  28.139911
Si  -24.579630  18.576000 -22.233938
Al    1.297680  -1.330013  14.747217
H     8.799576 -29.937662  32.113972
Mo  -12.102234 -16.299106 -18.816697
La   -7.856385 -14.778938  10.190080
Tl   38.025354 -18.355597  17.303845
Kr   42.188929  -9.292842 -11.247636
As    6.673766  17.278724   0.038184
Na  -14.469279  10.629596  29.294965
Tl  -37.894310   5.781474  21.174444
Cu   24.937207   0.579593  -0.887505
W   -16.762571  38.292289 -11.059645
Mg    9.237291 -18.796782  26.500970
Tc   29.191939 -20.633006  10.960230
Ni  -14.424413  38.291946   9.633791
Ho  -15.996598  28.915702  22.649395
Ni    8.978385 -27.936421  22.126024
Se  -22.150410  16.612349  -7.704129
Ir  -35.505835  12.635064 -12.462063
O   -23.783052 -24.175966  10.439924
Au  -26.588017 -16.540858  17.934699
Nb   -7.542475 -10.456774  -0.067091
La   -3.713990   8.104156 -38.261364
Se  -17.328510  -1.071960   5.773454
Cu   -9.187484  19.339491  -4.868474
Tl  -24.739953 -24.406715  17.571775
B   -29.827016 -10.601009  30.358917
Cr    4.130934 -31.952080  28.266991
C    -4.282121 -40.850959 -18.316838
Pr   32.188091 -11.710128  27.545501
Al  -24.183353  27.531585 -17.328143
Cr   28.745823 -15.116499  23.112969
At    4.368245  20.450184  21.340198
Pt  -31.044322 -16.284520   3.945402
Tl   21.512027  22.232360   1.741733
V    21.299273 -30.851511  24.855293
Au    6.703075  -7.338581  42.481164
C     4.167927  -9.085863 -18.594899
Se  -18.299851   4.634977 -37.684503
Sr   -9.668068  32.798077  28.386121
Ru    1.838211 -26.144720  33.638131
Kr    4.085265  -9.414976   4.889751
Cs  -21.631810 -15.789472  30.406618
Sr   37.538341  -9.832875   8.513131
Rn    2.915687  45.090785   5.678747
Ce   29.605279  13.327744  29.254553
Sn   -2.077003 -17.922422 -11.096160
Li  -29.554234 -17.327159  23.092795
Sc    0.876841  32.412559  21.764078
Se   39.969409  -1.368347 -17.697379
Re   -5.607904 -37.728670  -4.100685
Rb   39.394287 -17.576668   0.404195
S    -9.338322  32.679523 -19.592579
P    33.479413  -8.093542 -23.412754
Sb  -17.460374  26.753787 -31.449907
I    -4.357639  -7.560425  21.505044
In   21.642899  -9.220721 -17.856007
H   -12.931486  35.628121 -22.041112
Kr  -29.303268  -1.594742  23.255563
Na   38.008894 -13.648090   2.362380
Dy   -7.122720  -2.825138 -31.864160
Sb  -21.956756 -34.429457 -14.907176
Pb   25.475701  24.255103 -12.138942
Bi   -2.257368  37.496194 -20.428448
Tm    6.583734  -5.944873 -27.161747
Re  -40.260795 -10.800239 -18.731365
Bi  -21.996293  -3.780080  -1.713585
Mo    9.071427 -34.064663  18.343437
S   -12.559723 -42.307994 -10.648119
P    19.068661  10.630438  32.478215
Fe   -4.894531 -34.017059 -27.818266
Ni   -8.261537 -26.367735  -9.336304
As   19.129024  34.834988  -0.882543
Tl   35.670642  25.149882 -12.717179
Yb  -20.886604  -1.148026  -6.519990
Mo  -30.725656  -6.042167   1.261519
Ne  -31.152326 -18.286943  -8.755699
Os   -5.161148   1.440537 -34.589915
Mg  -19.837894  13.930004 -18.150176
Tb  -32.705645  10.163573  -1.465834
He   25.497011  29.202413   5.223194
Ce  -10.048258   4.084047 -26.819537
Lu   16.300114  34.008421  18.919425
Ag   -0.067741 -15.856181  -0.350139
N    -9.375683  13.466755  29.438697
Sc  -11.132388 -36.618853 -11.933858
Tc    6.264487 -26.189503   4.810294
Sr    0.108777  12.536473 -24.403052
Co   27.119277   1.124997 -17.253616
Pd   -9.786271  13.945294 -24.086591
Ca  -26.235920  -4.438924  15.813922
Ta   -8.799087  -2.778707  39.674353
Ba   10.895560   4.721710  12.709288
Eu    4.617231 -33.650197   7.280080
Nd  -29.954875  -8.688234 -16.200491
Li   28.868332  20.212125  -7.979142
Ar   -1.671849 -26.431231 -25.961358
Si    3.934278  21.389514  28.702841
Lu   33.651193  21.433355  14.801289
Ir  -14.968673   1.528534 -35.002063
Ge  -20.715416  29.329473  -5.239883
Sn   14.366442  27.796368  13.470840
Ba   19.727987  35.167826 -20.426441
Ca  -33.458145 -12.544472 -17.339832
C     3.986407 -21.760413  24.430596
Pt   33.495647  -7.042839  25.523551
Ba   22.803531  -1.132056  15.442164
Ru  -26.074450  -5.750943  11.726407
Ti   30.814519 -22.940935  11.951565
Os   19.557275   6.711843  39.901501
Y   -12.122149 -18.718957 -26.920952
Bi   -4.870421  -7.594586 -15.038148
Ge    8.350002   1.286831   5.196888
Yb    2.674627 -29.143465 -30.140819
Se   -8.393121  24.339195  -5.341725
V     2.072145  11.918651  16.863532
N   -11.987479  13.529843 -38.893102
Dy   30.934394  -8.290744 -25.734100
Au    3.435571  -2.225399 -38.386935
C    14.952881 -17.036774  14.192955
P   -30.488044  28.706960  14.055805
P     9.944826 -28.173843 -23.679333
K    -9.958965  18.497901 -24.038067
Cu   19.110895  15.039563  29.582776
Sb  -18.778240  22.075246  -8.821429
Pd   -7.523057 -12.547336  34.075498
V   -22.910432  12.549853 -32.106912
Li   14.613033  -1.927010 -26.046303
Co   28.950770  16.613972  11.195368
K   -19.687654  18.714656 -23.161746
Sn    6.384413  27.099252  21.874481
Sr   40.619601   5.026916  14.832950
Tm   20.767595  21.758319  16.448099
Rh   -4.719564   8.303137 -42.077322
Pt  -19.286398   9.421746  21.741559
Mg   24.592645  23.252370  23.801650
Nb   24.259115 -12.698232  -3.613061
Rn   25.076466  -2.147964  -6.258731
C    11.529837   4.102598  41.474594
F   -28.478847  -7.037099 -15.347074
Pt   15.067284  -6.451906  38.814983
Cs   -6.831126 -23.250236 -21.809910
Cu  -15.940597  31.214922 -27.278522
Rh  -22.398027   2.874562  31.706355
Fe    9.425504 -11.613589 -28.859151
Hg   25.908745  15.497122 -22.380307
Ho  -18.760208  -3.924484  10.548708
Li  -14.201310  12.424582  32.647443
Cl  -14.300605  10.365059 -10.555640
F   -10.487850  23.549932  -2.812142
Ho   -5.165996  11.333327  30.186337
O    -2.534031  14.464574  29.975815
Sc  -38.340066  -3.311998  11.017114
W     8.447908 -15.399702 -38.633090
K     0.389417  40.503083 -14.219620
Te   17.708766 -28.436207  17.571423
Xe   28.982799  19.264146  -0.499692
Au  -25.525782 -24.752741  17.210560
Nb   -3.282312 -12.177702 -30.919349
Sc   17.379433 -16.659721  -9.832609
Po   -2.145703 -37.773535   3.631003
Mn  -12.053613  34.055698 -10.608061
O    33.622854 -14.775007  26.565502
Er  -11.304173 -28.232982  25.294495
Te   21.409624  15.605907   3.731676
K   -16.846874  28.348746  18.487887
Lu  -27.670822 -31.975673 -10.359178
Os   -3.635781  22.274133  19.339247
Nb   26.928784   4.396377  19.478959
Po   -6.871145  13.341020   5.142887
Br  -33.597788   7.317412  19.711876
O   -38.548775 -17.257810   4.053830
Hg   27.077174 -25.535736 -24.308433
B   -41.835687  -6.127289  -2.016107
Ti  -30.220669   9.685614 -12.229223
H   -12.438251 -26.413963 -23.129965
In   16.672599  12.533874 -33.336704
Cu   17.238426 -13.742842  31.263115
Re    6.776496  24.827630 -30.522192
Re    3.768918  20.929928  35.751217
Fe   -5.595741  -3.591341  16.722700
Sb  -14.666617  11.637212   1.449313
F   -20.028605 -36.515415  -8.913848
Fe   14.136413 -31.289730  23.446628
Ti    0.831918  30.839494 -29.453846
Zn    2.842298  28.421529  33.888987
Mo   12.250342  32.477065   3.238245
W   -12.855364  12.788001   8.368121
Ta   -1.408894 -23.628781 -16.567948
Tc   17.176767 -10.434602  27.329421
Al   10.542592   4.104621 -12.429289
Kr  -10.509832 -16.854721 -11.847486
Sn  -20.364618  21.419835   7.990177
Pm    6.379303  -3.425437  35.356286
La  -10.469248 -27.782109 -19.022018
Rh  -11.490446 -20.470675  36.925140
Xe  -23.822300   5.436194  38.176923
Hg  -14.047738 -32.326773 -16.253542
V   -13.422421 -15.676655   4.368912
Rh   22.607537  -0.712010 -30.802303
Hf    6.135378  20.949217 -19.902584
K    26.723681  28.519508  21.790092
Ar    7.044398   8.050438 -19.156627
Tm   18.292773  36.327988 -18.916193
Mo  -43.610793   3.537354  -4.783026
Eu    4.999034 -25.753208   5.792398
Er  -25.525706 -18.863059 -10.427455
V     2.205208 -18.786832 -36.493022
Li  -28.023264  -7.640306 -14.093689
Sm  -29.897745 -16.492396 -17.006564
Po   11.228356 -36.772213  -7.521155
W   -22.367646 -19.776192 -26.330098
Kr    6.356964 -17.961917  39.749302
H    11.875085  37.058556  13.977316
Mo   36.468610  -5.662285  16.482064
Te    4.869786  18.418779  28.393003
Ba  -16.236890  -3.211920 -14.085702
K   -26.468936   9.344658 -14.608839
Po   29.332919  28.136997  18.493470
Au  -14.159198   9.209276  -2.371114
Fe  -15.918407  -8.337117   2.279838
Be  -14.997300  27.181203  22.310453
Li    6.366159  15.355712 -29.835099
Ru    2.607202  -7.905046 -21.296032
Xe  -13.157083  17.540171  32.428115
Ni   11.424664  -8.079886 -41.852175
N    -5.518750  -3.024855 -32.971384
Mo  -28.716649  24.599450  18.112418
Xe  -10.155357 -18.894293 -35.000413
Y   -35.047744 -17.394727  -5.790139
Ar  -11.889653  -5.459622  -6.710774
Rb   37.917714   8.310055  -4.824335
Kr   -8.991513 -21.325166  -7.779223
Yb  -15.802978  36.071486   4.522863
Si  -34.310156   2.798874  28.812625
Li   -0.273592  32.300831  29.399387
V    36.565107 -17.643892   6.620440
Sm  -32.657639  -3.875260  22.087300
S   -30.008784   5.909067  19.416608
Dy    4.780047 -31.537299 -18.764256
La    7.776611  -9.051289  34.897126
Hf    6.466005   1.121359   1.792238
Re   17.688730  12.921825  19.116081
Se   -6.380409  20.413517 -35.611299
Nb  -12.726751  -7.875005 -19.721787
Fe  -23.602585  21.847317 -11.320541
Kr    3.661881   7.752368   8.429764
O     5.899556 -10.802614   7.536136
Ba    4.317421 -24.503430  19.665510
Cu   12.322624 -10.290194  38.737913
Zn   26.794202  -6.818948 -33.275663
Ta  -13.794134 -19.316692 -26.773924
V     2.995859   9.883627 -25.924408
At  -33.734096   5.968121  20.882467
Te  -11.230564   5.863097  28.434845
Tm  -25.273934  25.542035 -16.910690
Mn   15.017984  21.574258  -0.543433
He   -6.717969  28.551275  -8.046348
Rh   28.314842 -16.403943 -10.870494
Sr  -14.734200  -9.612225  26.868726
Rn   20.026108 -34.793465  20.519607
Ta  -28.429507  18.842641 -25.467048
S   -36.145647  -1.270966  -3.263867
Au  -28.678474 -16.061731 -28.477616
At   -8.619055 -16.138343  -9.764491
Al    7.688950  14.041267  -7.612353
Os   -8.459678  29.622244 -20.343571
Sr   11.295812   6.616799  -8.734281
Dy   -6.175746  33.969528 -17.761536
Os   29.291370  18.437161 -12.418126
S   -30.266308  14.581716 -30.839205
Yb  -20.347510  17.353231   5.380182
Ir  -26.428629 -22.190920 -20.052166
Ru   -4.347967   9.440830  30.682124
La  -25.331253  -0.186361  31.200954
Re    9.918707 -32.907049 -16.987879
Rn   -1.703619  35.053928   5.831691
Rn   24.273241  19.941869  23.522068
As   25.336375  -0.932597   2.643141
Ce   23.039332 -17.279199   7.823850
Ge  -36.565907   2.533684  15.726940
Al  -29.382060  19.016214 -20.420358
Te   -8.392344  40.872599  12.953808
Po  -26.324526  22.954514  12.910363
P    15.934889   3.433580  37.433578
Tm   -1.764923  -5.868698   9.482147
Re   12.469027 -12.400967  32.435833
Ti   11.392470 -30.130197 -23.944551
Mg   10.720538  28.310596 -22.979992
Na   25.393028 -25.154523 -10.487271
Cs   18.317508  20.725404 -10.010931
Pr   34.155152   0.343823 -20.113962
Mo    4.651777 -12.328750 -41.571067
Pt   -8.005431 -23.743259   5.288458
He    4.592499  27.531898  34.543961
Ar    5.425362 -35.592858  -5.020230
Zn  -17.007570 -17.364720  20.470546
Kr  -10.667332 -27.989207  10.851371
Sn    0.183567 -34.047015 -12.306883
Ag  -25.085477 -12.894957 -27.611408
Be   -2.330727  38.032833  -4.236872
Co   28.065844  -2.850025  13.335697
Eu   10.677485 -19.835602 -22.691290
Sr   18.364484   4.614768  16.248995
Kr    8.644555  32.518477 -16.879491
Se   20.085356   0.244963  12.715952
Sb  -17.378046 -16.665125   5.574021
Pm   27.177521  10.835853 -33.825267
Eu  -25.051876  24.625849 -22.568664
F   -26.588615  28.106039 -19.513167
Eu  -16.925199  30.645433 -17.895904
Kr  -10.517753 -23.304984   3.539594
Na   -0.529030  29.986243  -2.349256
Ni   -9.895514  -9.069038 -28.442727
Eu    5.161122  15.677520  -9.313363
Nd  -25.478898  21.544770  13.839549
In  -15.263826   3.725700 -34.514695
Se    6.749960 -24.570850  25.454296
Lu   -2.474173 -27.326204  -3.969468
Ce  -26.020989  26.124578  -9.103096
Cr  -26.319263  19.475988  29.027406
Cu   21.396874   8.843508  18.261617
W     1.209039 -30.250008 -23.169816
Si  -30.905820  -9.392625 -22.747766
H   -12.939073 -23.772180 -35.841014
Ru  -20.557010 -15.964729 -21.979189
Cl   42.608002 -15.729587   0.003744
O   -32.013572  29.324122  11.778600
B    10.213942  14.203558   0.983310
Rb  -21.331192 -31.499341  12.451059
In    1.067141 -24.319294 -19.422139
Sn  -40.611608   8.834034  -1.469023
Ge   12.908705 -12.347371  37.719550
Cu  -24.829152  11.474328  25.229291
Sc   23.748042   7.029099  11.956012
Ti    3.518546 -14.440947 -29.258283
Pd   -6.707815  -2.075874  26.185364
Ru    9.247654   6.912769  33.305625
Pt  -20.652714  34.333570 -15.389857
Ne  -26.782009   4.981508 -22.058107
Ga   -2.719400  -5.165733   5.087689
Zr   -7.988897  33.976191  -5.215157
As   35.507916  -9.100606  -9.507992
He   18.080295 -25.335480  20.592846
Cl    8.195041 -25.626256 -15.195266
Mo  -23.021670  -1.832556 -23.179087
Ar   -8.617264   6.860006  25.496306
Te  -14.330319 -12.699736 -29.111415
Ru   12.535064   7.010646   8.853307
Cl  -30.979498  20.215382  15.795186
Ho   -5.664301  40.170817 -13.675989
Yb   -6.880051  32.162296  17.255439
Se    8.187061  16.860965 -12.622370
La  -11.099291  21.210197 -22.923641
W    22.159775 -11.131698  20.193700
Ge   10.303390 -10.226384 -16.116549
Mo    1.921483  21.518216  14.291426
Pm    4.540713 -23.274189  18.288845
Sc    1.777540 -14.446594  38.056177
Ne    6.950479  16.945700  19.581959
Se   11.072583   8.105584  16.472426
Au  -16.586316  12.417660 -30.800204
Cl  -10.956142  -9.253716 -29.567245
Si  -30.130205  23.983383 -22.308454
Ti    1.270444 -13.691122 -26.885991
K     8.030707  24.415727 -24.385551
Pm   31.957143  28.548767  -0.686285
As   -7.576216  -8.353919 -34.578363
Tm   -3.085646 -16.411487  15.497616
Te  -36.504397  22.795941 -13.936473
H   -14.401716  39.921799  -3.398293
Tl   29.737766  15.369211  -9.404486
S    31.471588  30.102516  -7.595208
Pd    6.711328  24.539100  13.194320
Re  -15.217615  33.378030  19.386811
Re   35.026076   3.706152 -19.299265
Li   15.622695   9.921148   4.721763
Li  -17.770176 -22.708109 -20.274567
Nb   26.355182  11.340803   6.507155
Te   -0.689466  25.847206  19.456726
Ba  -20.716974 -25.713170 -11.320268
Cs    9.410226   1.133616  16.131403
Nb    5.552345  12.870775 -27.660003
Mo    8.863897 -27.014917  21.802812
Zn   10.217473 -26.676088  20.670668
Tl  -28.470272  -7.974859 -32.558898
Au   17.320264   9.540378 -38.999534
Ar   -1.100966 -12.032234  -0.393074
Mn   10.805531  23.261161  -5.982426
Hf  -10.825304 -41.189184 -12.230299
S     0.384280  -6.075905  -5.015637
Eu  -27.912584  17.861915   4.511237
Br    7.139117  24.436120  -7.046611
P   -28.171968   6.013595   7.609016
Tm   24.833448  -3.831978 -23.445322
Mo   -0.573030  -6.301595  36.509992
Cd   -5.438626   5.016344   4.717342
Rb   30.471833 -21.241248 -23.863837
Sr   12.804936  -6.417814  11.853054
Br   25.549667  -9.547089 -19.480738
Rh   -3.056419  -6.214517  30.389964
Fe  -14.594138  22.168581  11.301781
Se  -23.297783  21.041224  11.597736
W   -22.633354  27.377193 -26.699764
Tm  -14.600523   4.711443 -15.551279
H     4.468266  29.202722 -24.740611
Pd  -10.293981   5.177565  -5.443193
Ne  -23.090331  -9.857763 -10.638502
Sm  -17.006295 -24.434606  20.784118
Br   30.769648  30.471717  -2.369548
Fe    9.599503  -3.677119  43.757436
Eu   33.054371  13.461254  25.128596
Gd  -13.336819  -5.722025  12.263034
At  -34.087884  17.017396 -13.297995
C    24.567151  10.311956  17.696424
Al    7.215009 -33.237984 -15.324048
Si   -7.335999 -28.471357  10.068000
Nb    2.471586   6.721805  17.926228
Hf  -32.496166  26.053694 -13.692512
Cu  -30.752767   7.795140 -19.740122
As    1.033279 -24.754648 -12.581339
Mn  -10.171203  30.259232 -13.961827
Lu  -27.071550 -21.327561  19.540672
Al    1.089247 -44.970179  -4.523294
Ni  -18.949442 -35.159206  20.950287
He   -6.616420   0.520580  32.774404
Yb  -37.239835 -21.577822   2.650006
Rb  -30.138326 -32.441078  -1.483553
Gd  -36.738442  11.020873 -11.230186
Hg   -7.867089  18.375436 -35.133889
Li  -14.063871 -17.627916   5.898271
Ag   10.335208  33.681918   6.813004
Al   25.589932  18.475149  -1.795621
Tb  -22.857258   8.402290 -29.964593
Sr   -0.518308 -21.956770  31.448784
Be   13.857239  18.614185  21.686647
Si   15.961380  12.154285 -39.655605
Ta   26.031578  19.265087 -12.418376
Tm   -0.122066 -17.144047  33.645460
S    -1.222046  25.367730  20.909568
Co   10.054893  11.331983  37.358311
Zr   40.340686  -7.975405  10.557259
Ni  -26.071571  32.003472  16.727831
Dy   -5.039677 -13.127481   8.929682
Sb    7.547060  12.331000  -9.274976
Lu  -29.200535  33.762093   8.372107
N   -14.839535 -13.432339  26.854724
Tc   18.138763  13.713254  13.224997
Ru  -27.111125   5.331745  19.082931
Sn  -16.805452  -1.678697  -5.067412
In   22.515694   5.119251  21.638038
Cu    6.718364 -13.582673  37.286196
He   20.435918 -10.188262  23.659795
Te   37.957195  -4.080477  -8.617830
H    18.623795  24.600215 -33.009085
Sm  -38.088630 -11.761479  14.506760
V    25.787649  -3.396277  -7.976733
Pm  -19.053641  22.362741 -29.644163
Tl   23.872635  30.075463  20.163141
Se   -1.690552 -15.809658  -8.083012
Fe   14.252903  29.265642 -17.277895
Ag   -8.577275  23.962939   7.365552
Hf   34.028645  18.890566 -20.701017
B     0.492293 -30.876176 -29.431401
Mo   32.678036  19.507853  -5.354074
S    15.401755   4.216536  31.715477
Sn    0.585849  10.831639 -21.720564
Sc  -18.222084   2.634918  27.789542
Sb    7.471195 -15.955501  30.386321
Ru   -6.097901   9.268009  43.163033
Pd   14.710344  -4.251153  27.423879
Sb   23.431245  18.742643 -33.431660
S     5.763648  -2.465017  -2.805981
Yb    0.086469 -20.873474  -3.409094
Sb   12.159186  -9.894364 -10.043561
Dy   25.547157  29.311063 -19.686501
Ag  -33.585344  -5.284237  -0.899102
Cr   12.767604  37.718580  11.358375
Tc    2.319150  13.492574  23.244431
Sc    4.152513  37.696975  14.106102
In  -32.443913   0.801527  26.432499
Cl    6.365724   1.806876   5.243719
Sb   43.893184  -4.376847   4.531573
Fe   11.656812 -25.779711  16.639670
Bi   37.094330 -14.201308  14.888909
F    14.788648  24.483284 -19.546346
Cr  -17.760762 -28.337960  30.633570
Ca   -2.662442 -10.759773  -4.072597
La  -20.875811 -28.353373   2.248240
Ar   20.397266  29.669217   8.636028
P    29.051045  15.801561  -1.126188
Tb   26.483147   4.314903  25.180216
Ba  -15.471630  35.609622 -13.368268
Ir   36.774606  -8.296774  13.454012
K     1.749308  30.826525  28.178670
Pd   25.294682 -32.254491  12.335097
Rh  -33.431886  19.351574  -5.830240
B   -15.105107  15.933083  26.748262
Y   -24.566989   0.533585   4.779321
La  -12.638921 -30.969142 -26.844339
Rb   36.133083  17.388478  15.979094
Cu   14.756738  14.914916   2.580785
Ho  -22.665649  -0.612610 -24.784571
Pb  -19.991693  -6.879663  -4.622443
Ca  -30.011430 -20.910125  -8.858241
Mn   14.835386 -10.161991 -27.051393
Rh  -10.350661 -29.217226   0.755719
Tm   34.472700  10.383612  -2.671406
Mg   -2.928140 -38.208600  21.928497
In   -7.150624 -29.115789 -26.429733
Ce  -25.627477  16.211877 -22.432478
Tl   21.852019  -7.559678 -12.256042
Ho  -11.410050 -34.117559 -25.796842
Mg   -2.866650 -20.140888  -1.166757
B   -27.317334  31.692300   0.895609
Li  -24.551170 -16.212249 -29.346145
He   44.098889   1.775789  -0.014468
He  -23.192815  -3.206199 -31.476883
Cl  -25.757742 -22.297805   3.560996
Re  -24.913928 -19.802218 -27.960714
Li   -5.324668  13.667322  35.414972
Co   11.855655  -5.413369  28.287724
Ta  -10.339156  -9.733313  15.276848
He  -30.632393  -0.964085  -0.920351
Zr   -5.684039  -3.673461 -22.333523
Ca   16.226508 -12.281847  17.342212
Au   25.488026 -30.621007  18.824749
Cs  -10.861924  10.948757  31.295833
Nd  -14.736549  12.385597 -18.760488
Fe  -27.111533  12.059046  -6.042460
Ar  -30.883058 -23.804288   6.625474
Ru    8.100928  14.358182 -13.042256
Rh  -33.932991  -3.104011  29.564439
Pr   17.184738  32.445632 -18.352002
Pd   11.681594  16.330357 -13.457246
Kr  -10.409560  40.782552 -15.352248
Lu  -23.232784  -5.302334  23.125938
Ba   16.789833 -11.648799 -23.394820
La    1.317541  20.648042 -39.896379
Eu   -1.376204 -12.268480  15.225326
Tc   16.645810  20.663757  17.899185
Ir   20.031095  34.562953  -9.117604
Co   -1.120892 -26.503200  22.607933
I    19.329477 -24.925093  27.252832
At  -24.646293  -3.516669  28.064466
C     9.448102  14.260073   4.150592
Mg   22.605162 -11.566846  31.492803
Co   10.464321 -29.274976  14.904498
He    1.161702  39.753702  -1.087828
Rb    6.884149  29.513073 -26.160579
Cr   -6.318169  14.811031  -5.962687
F     1.836512  18.519098  36.099954
Ca  -23.177618 -10.746025   0.696660
Rb  -31.796265 -13.135583 -29.992827
Er   21.334762 -15.486074  27.803430
Gd   11.147618  30.833779  12.603849
Mn   12.609373  16.680503  13.905802
Pr   12.930713  30.139223  16.198039
In   24.012699  -1.844768 -35.171909
Pt  -38.089442  20.324067   1.328679
Pr  -12.188519 -17.616689  15.970484
At  -31.845782  -4.817584  29.862355
W   -12.431178  19.778986  -6.929377
Ca  -20.584278  21.875198  19.904856
Ce    9.390971  25.528338   5.208775
Dy   31.786712   2.198464  -6.250302
As  -23.019033  -2.418765 -19.147843
Po   -9.694728 -21.261827  26.956086
Yb   13.087102   3.124327  12.541442
Ti  -35.541597  14.121554 -10.738353
V    26.210759  -6.918483   2.500334
V    -9.482152  32.044508  28.884377
Zn  -29.423891  11.168261 -19.679791
P   -33.275462  -0.082338 -30.746202
In    9.217882 -19.697130  -7.986833
H    10.713413 -16.637260  32.664888
Ba    3.076450  -3.883049 -29.933232
Cr   -7.992873 -13.117750  -7.580391
La  -14.651700   7.121775 -23.957868
Gd  -12.687692 -30.081546  -4.734085
Sb   10.901363  10.015138 -22.465096
Nd   -1.673367 -27.331198 -15.563182
Y    23.741660 -24.132216   7.129682
Re  -20.914384  10.664172   0.044696
Cd    9.939009  -4.220031  26.355546
Ge   -5.564609  -0.870561 -28.074887
Gd  -14.327271 -24.192332  10.344945
In  -19.803518 -25.354431  10.606465
Os  -21.089253  -3.102507  12.609358
At    5.499528  -3.903468  -2.781850
S    -5.152154   5.782614 -31.347413
Br   -7.337756   9.512682  27.908305
Tc  -24.462641 -24.031574   4.834638
Sc  -37.697107  -1.918784 -17.673840
Fe  -10.742325  15.775026  30.817702
Ne   39.618429  16.901296   5.552914
Yb  -15.589318   2.419190 -21.317800
Ti    9.201539  33.425528  19.246235
Bi   38.607561  17.307951  10.212082
Ta   17.343246 -12.418157 -36.472025
Pr   15.609408  19.643599  20.147307
Zr  -23.344220  -7.621454  16.166185
Os  -29.206725  23.110444   2.918814
Ti   32.364329 -26.188415   6.793310
Pd  -22.078770  29.711736  25.134208
S     4.920561  -5.198567 -39.187249
Ru  -24.866662 -18.071644   1.130544
S   -10.618515  -4.136841   1.704549
Ta    7.766222 -40.391481  11.222728
Na  -10.511049 -10.916764 -17.836923
Hg   17.807247  11.763055   1.512072
He  -14.873914  -1.033128  16.962472
H    -6.570868 -27.868800  31.033370
Pt   -5.491800 -30.940603  19.130039
Ni   28.582342  -1.625338  -0.323697
Re    5.900740 -24.719522   7.780046
Cr  -31.534981  10.059768   8.357612
Hg   -5.028476   2.417531 -15.099012
As  -23.851465   7.675282 -19.861981
Ta   21.893516  12.565066  20.170123
Se   23.343867  13.316390 -10.978378
Tl    1.187625 -11.037135   9.836064
Pt  -17.940127  -8.593785  -5.289513
Te  -11.207866  25.169006  32.493079
F     6.485951  25.950151 -22.172547
Os  -29.130754  20.528428 -12.867361
Ce  -21.251734 -15.864531  17.269751
Li  -28.348239  35.036003   1.130138
Cs   -4.402267 -23.732385 -20.812758
Gd  -23.020382  19.652780  -2.544729
Pd    7.090945  25.515234  18.702382
N   -15.777461  32.523794   5.781317
Hf    8.353009  39.881386  12.302331
Ge   16.161848  -8.168306   6.211362
Cl  -24.956715  21.809975  26.658967
Br  -34.129164  -2.385414   2.867836
Cd  -29.826504  -9.788876  31.547246
Ne    5.082946 -17.947006 -30.264971
Ni    3.830374  30.160122  33.450884
Ga  -10.274249  22.967060 -21.976406
Rb   -3.474952 -12.404292  40.847392
Fe  -12.664352  -8.482054 -42.285910
Kr   38.321373   8.539083   0.814687
Po  -23.340837   0.601110 -12.149336
Sn   12.658651 -35.715387   7.351494
B    36.044768   0.836758 -19.991276
Rb   28.897958  32.835277   2.168132
Ir   22.547295   7.635752   4.803998
Tc   14.466753  30.902155   6.445864
Sn   -5.509369   6.898621 -15.503061
In   21.952696  15.399904 -15.824886
Al  -33.963133  21.514389  -5.170628
Bi  -16.900456  10.221806  23.031400
Nb   26.775958 -15.709630  12.155745
Eu    4.949960  18.857715  34.013662
Os   37.102971   2.894869  26.482279
Hg   19.541497  -1.662364 -21.675584
Mn  -16.819996  13.261698 -36.454335
Ar   22.154421  14.481030   6.522372
Ta  -20.728897   3.459270 -37.962137
Kr   -7.162556   7.168782  -3.587391
Sm  -32.312964   9.390104   5.092833
Cs    3.915798  18.783515  -3.100350
At  -39.803386  15.544138  11.578996
Kr   29.806249  11.171944 -12.966480
S    32.095788  23.504644   6.952292
Ni    3.084349   4.448311  -7.148534
Ga   38.444604  20.023811  10.948159
Br  -22.340697 -26.094470   2.381853
Ge  -31.647310  24.181892  -9.836684
Cr   -2.664113 -21.396302  -6.145193
Sc  -38.612658 -20.011545  -6.644283
Se   27.148197   4.064147   1.131184
V    -8.104091 -32.831892  -6.816314
F    26.081128  16.112701 -12.860247
Li   39.612564  20.845368   5.078475
Si  -14.936434   0.991609 -29.761997
Yb   32.117812  10.463066 -25.459326
Er    4.581181  16.142558  13.219912
Ar   10.263973   9.356204  34.284258
H    -2.203452 -20.656638 -38.076214
Sc  -25.173984  18.019683 -29.222853
Ce    3.256372  37.230486 -12.922220
Pr  -15.299843 -24.811811 -29.562130
Mg  -39.325568   7.048167  14.580738
Ar   -4.526030  26.497087   2.695832
Pm    8.726842 -19.098021 -21.326720
La    0.424231  23.501228 -20.305160
Mo    8.945589  -4.055814 -36.578584
Ag  -33.844882  -2.126731  20.448063
Yb  -34.671192  26.650784  -2.102367
C    14.762283 -39.952638 -11.953293
Ne  -16.367161  38.852137   1.411048
At   21.760327   3.829350 -35.369074
Tl   -2.461611  20.726122   3.673183
P   -15.238828  12.298667  16.574763
Hf  -15.747245 -31.978295 -15.442452
Na  -21.678599 -38.346015  -5.840514
Bi   12.623769  34.214647  -7.901028
Si  -10.427190  -8.244734  27.391236
O    21.874980 -19.772535  33.817135
Yb  -20.156296  26.869762 -13.593191
Sr  -10.297801  41.933927   6.295495
Pd    7.193122  29.020781 -24.330889
Yb   -7.502810  -1.829777  44.041795
Hg  -15.867052  -8.002162  13.216143
K   -12.904135 -19.434588 -14.631987
Pd    7.519151  -2.400596  -4.639892
Os  -30.157405 -10.456441 -22.079580
Ce   11.605987  -1.379492 -14.201391
Ru   12.425922  41.136877  15.569525
Tb  -19.438547  13.660181 -34.969230
Lu   13.687239  29.194213 -31.992853
Fe   35.186598 -19.387300  -1.574285
Ge  -13.612105 -23.471850  18.842784
Sc   14.572981  36.595941 -18.609289
As   26.160326   9.885251  19.467547
Br   -9.000493 -36.832548 -15.941775
Al    9.269886  -4.033604  29.202093
Cr  -24.843072  17.069229   5.558437
Nd  -11.631598 -28.324795   7.475576
Ho   -1.742683  -9.777523  31.845418
Ni    1.707751 -43.576612 -12.826142
Na   17.560206  36.877677  -1.316200
As   -4.033334  27.445411 -32.248271
Er   35.821810 -24.700663   3.331271
O    32.687025  -2.670436 -27.404950
Te  -21.730383  -7.283653 -11.699499
Na  -20.809500 -26.351031  20.116065
Re   -7.144852 -26.551345  10.891755
Dy   -4.933701  21.031070 -33.924859
Ba  -43.343383   4.381842   4.370266
Ho   23.399991   5.492475  11.451377
I    40.018240   7.105178  15.289581
In    2.978752  30.385082 -14.758002
Er   37.699402  -7.954507  -8.682165
Mg    2.564189   7.880659 -17.929876
Kr  -15.335874  25.861784   5.914842
Mn   15.087913 -13.603105   5.776194
Eu  -27.969656 -18.107227 -11.762044
Zn    9.999361 -15.656292 -37.868195
Pr    5.953535 -10.420132 -17.686243
N    34.546698   4.677291   5.843966
La   26.503821  24.698111 -20.788811
Pb   37.073361  19.177241 -15.219882
Gd    3.262942 -22.039817 -30.730466
Ta  -21.533671   6.909146  10.571111
Ne   37.325300  10.359967   1.689607
Yb  -17.608714  -1.898181 -29.233497
S    19.192811   7.320176 -18.111510
Re    8.424137  -9.347841 -34.591345
I   -27.396080  -3.792504  15.481849
C   -35.767849  12.838156   6.182821
He  -14.059271  -0.518716  37.301092
Mo   -1.539982   5.933265  -9.847115
Ta   13.033377  16.119381  22.609870
Tb   24.113540  11.824271 -10.233585
Re   -0.320373  16.228409  25.480331
Hg   -7.458087 -13.987075  13.817971
Pb  -23.699780  17.211628  -5.530759
S   -42.560594  10.304168 -10.804167
Kr  -31.960513   4.280547 -28.443404
Co   10.645075 -22.388090  18.664934
Tm  -15.972246 -30.363423  26.781086
V    37.900162  18.482243  11.607970
Au   26.041923  15.656699 -18.005807
Ag   10.782169  31.793865 -24.937799
Rh   23.457345  13.800288 -27.817406
Ta   10.915138  10.395584  39.025036
Zr   -3.981299  29.143477  -0.617589
Mg   11.611585 -36.920986 -19.505853
Ni  -13.419546 -26.858124 -16.300947
Sc  -37.772296 -15.601358 -14.710702
Zn   12.787594  -6.946183   3.386201
Pb   23.412486 -17.968491 -25.297147
Tc   -4.752541 -25.351171   0.063832
S     1.329532 -38.504014  -7.050775
Cl   10.262226  12.073300  37.098439
Co  -25.438792 -35.767653   6.319851
B    10.695299 -35.033310  16.280144
Rh   25.137505   7.399677   3.118373
Na  -17.282730  12.351779 -28.443630
Nb   15.234516  41.718630   9.343934
H    -7.321745  31.798036   9.367802
Ru   26.311850   9.650854   6.057178
Ti  -13.793357   8.113395 -32.951483
S    11.408198  -9.123060  -4.549692
Ne   -7.334805  40.522994   7.754147
O   -28.052447 -16.570916   5.871306
Xe  -14.712669 -18.495143   6.583797
V   -37.794958  -6.619675   9.973860
Mg  -18.628486  14.842431 -14.174041
Ta   17.209045  25.294153  24.523465
Hf   -3.868983  -6.406303   3.155150
Sr    3.530408  -6.590591  41.301667
Er   12.623744  13.056797 -38.852385
W   -24.667817  26.609204 -17.573738
Mo   13.444490  12.125962 -23.057747
Ce  -21.501244  36.554723  -3.048692
Ta   24.097602  -1.980159  -5.580626
Be  -17.099632  12.309225 -32.952040
Rb  -15.949345 -11.096107   9.057978
Tl    0.170463 -39.822769  -8.361924
Tb   12.513368 -18.602383  21.367361
Ir   14.341077  31.255877 -13.436317
Ne    5.543198  20.904592  38.484350
Co  -22.020465  18.332549  -5.715326
Nb    9.219657  18.858148  14.060076
Ga   -8.908100  26.476526  21.872653
Ga    5.837207 -37.905105  -5.858356
Cr   17.529226 -27.717605 -11.485751
C    12.671711  31.156520 -24.391681
Si  -26.088198  15.462301  18.297679
Mg   23.315197 -32.249541 -21.442861
F    18.656120 -29.298848 -22.140705
Eu  -16.142221  -8.316588   4.514655
Er   40.832127   8.991451  -7.947650
Cs   11.530168   0.548466  40.888003
Mo   -1.989330 -18.880330 -17.082805
I    -7.969043  28.686097   6.793874
Al   -7.668540  23.830826 -31.008005
W   -26.494637  13.141906   7.119383
Cd  -26.845324  -0.627683 -31.341735
B     3.840293  11.963264 -20.522820
W    -2.716330  12.743210 -26.306933
Ir    0.577266  21.485404   4.040538
Lu  -14.631739  35.645220   4.769036
Ag   -4.351978 -14.952045   0.055386
Al  -23.378230 -22.269228  -2.965903
F    23.275650  -1.501861   2.439776
Er  -16.462907 -21.720694  15.028239
Lu    6.448750   1.946706  -9.225753
Be   18.702846  15.050316  -0.953705
Ni  -12.099461  -2.610380   8.054380
B    24.169710   8.209875 -23.780028
Te  -21.969634 -11.881866  20.908688
P   -22.901923  -7.181696  12.197545
V    27.273311  25.076877 -17.776125
Tm    6.257830  20.311129 -18.750360
Xe   -5.920924  19.220456  40.755355
Ga   24.431098 -28.001079  10.108323
Ru  -13.792247 -27.331767  -4.957189
Al  -20.715624 -20.149176   3.003875
Rb   10.626949 -27.671051   5.624313
Ni  -22.670112   8.314119  22.739120
Rb   12.054801   9.102301 -40.526712
P    -3.283935 -19.173548 -32.199911
Sc  -22.711952  27.738159  18.527960
Sb    5.561831  -6.660481 -36.717900
Rn  -19.134858  16.385058 -29.751908
Ta   -2.579632 -11.460123 -21.181844
Ar   -9.897416  -5.349376 -42.373530
Br   25.850402 -10.884441   9.598380
Ta  -28.851558 -15.931302  28.251869
Tl  -21.058876  24.375037  21.823647
Xe  -35.299981  28.597732  -1.616979
Sn  -18.148708 -27.122149 -29.755202
Pt  -10.382178  -1.840620 -24.044171
Pt   20.423037  -4.273500   8.999636
K     7.375768  28.259621  -6.725335
C    12.680226  -6.226081  17.075749
Eu   -3.235878 -18.352019  41.414650
Cs   21.908342  13.979747  -2.208762
O   -23.899030  -0.301171  25.627801
Sm   35.953785  16.051174   3.100083
He  -17.563900 -23.241842 -16.260859
Tc    0.271045 -14.654549 -32.336108
In  -18.746081  15.536446 -18.044379
Hg  -14.734744   9.346367 -24.138602
Li  -31.405037  10.978184  13.568494
Eu  -19.171942  17.219175   3.413337
Po   18.042340 -19.122079  37.340820
Tl  -31.318326  22.905871  10.013461
Te   -0.503240 -14.974324 -18.220538
Te   26.854734   3.831920 -28.584810
K    35.492449 -26.439945   9.656359
N    33.214625 -13.151168 -24.476865
C     9.714015 -22.515144   2.940273
Sc   38.720586   3.173649 -14.353650
Ru   13.513411 -20.332149  18.185873
Y    12.609565  -0.038665  -5.198458
O   -16.078971 -18.768863  -5.740345
Li   -2.636664 -12.341132 -28.900687
Lu  -33.834660   0.893025 -27.794052
Pb    5.619383   3.458361  36.706451
Pt  -15.238359  15.062609 -34.343746
Eu  -22.113261  -2.056311  19.463609
Li   -4.125975 -18.715928 -31.572646
Fe   23.334889  29.054544  22.207475
Ti   24.537204  -7.777417  35.722506
C    -3.705768  10.331167 -29.507676
Hf   17.600522  -3.084690  39.700509
F   -16.265575  21.332660  24.260807
C    -9.988356  14.882839  37.739196
Ne   14.254947  -8.694047 -10.165446
Eu  -28.026376  12.813330 -24.853667
Ni   30.104352   9.871769 -11.408543
Ar    8.739120  26.803890 -28.929546
V   -22.188581   0.571115  27.476824
Re  -12.135884  15.683975 -17.580270
Te    1.525607   6.608411  -3.013619
At  -34.861008  14.683420   2.763090
Pt  -20.170888  13.388590 -20.173468
Ba    2.784017  21.517001 -21.763996
Pt   27.453621  13.327913  12.257538
S   -20.428873  -7.943953 -18.094930
Ca  -13.837939   3.090505  37.884535
Eu  -18.904163  10.317204  19.457381
Tc    7.752188  26.242632  11.967368
Xe  -33.136930 -11.088581  21.372731
In  -24.479602   5.557081  27.749419
Pr  -22.048259  39.034936  -1.419589
Kr  -14.709449 -17.052370  -8.331055
Pd  -31.812839  -2.918892  26.971198
Cu  -35.727634  -9.151989 -26.500217
Ca   36.600928  -8.299497  14.576011
N    -3.617226   8.510596   0.282248
Hg   27.195932  20.165196  29.674715
Eu  -21.470861  -6.968987  22.479921
Br  -19.971355   9.494423 -10.598979
N    -9.907117  36.854659 -24.336981
Ru  -27.465650  11.511064 -28.816763
Au   19.674489  -5.637026  37.499566
Mn   23.989939  18.547026 -30.064292
Sb  -40.120665  12.015438 -16.179005
Bi    3.182894 -40.199492  16.755945
Na   13.967323   9.820209  36.083607
I    -3.659041 -12.776140 -20.712433
Re  -21.241261 -23.747226 -23.080803
Rn  -21.385971 -24.749643 -14.028556
Po   23.095667   3.011823 -25.852246
Ru   -8.888090   4.582497 -24.784618
In  -12.233684 -10.921828 -22.688232
Rh   35.375950 -16.392939   1.900712
Os   34.709561  -1.189042  24.869480
Nd    4.633893  -9.365644   8.818928
N    -8.584541  43.335053  -2.503982
Pr  -34.431757 -12.559598   1.528217
Sb  -25.092562 -22.916413 -12.114582
Nb   25.302445  -9.534388 -28.954924
B    32.490138  18.379556 -18.553862
Sr  -26.251064   8.391610  19.304029
Mo  -23.272470 -15.711537   0.515175
Eu   26.196834   5.894251 -13.404821
Re  -19.090307  12.785496  23.596647
Ba  -18.395388 -14.386865  16.824109
I    19.452700 -11.675989   8.011875
Cs  -25.886912  34.168680 -12.687562
Hf  -36.177145   1.319826 -21.698150
Ho   27.527653  -3.701185   6.295903
Ir   10.928393  38.442011   4.386691
Lu   37.257193  21.169591  -4.052740
Au   36.537319  21.893282  -2.759842
He  -15.735256   2.490566  31.160001
B    23.665837 -32.414117 -10.747476
In   22.724809  16.583179  28.522399
Tb  -18.179539 -24.454405  16.556715
In   -0.150571  16.865834  -0.848186
Y    12.253790  35.970373  18.337949
Sm   27.905344  -3.226415 -19.636392
Mn   17.781372  37.214421  -9.176222
Pd    4.957753  -7.269783 -36.981883
Rh  -11.773601  34.926137 -18.684641
Po   10.425782   2.950643   2.396777
Po   36.919602  -8.566215  25.514850
O    -2.789256  -9.476136 -30.697160
In  -25.414419   3.528423  20.441529
Mo  -40.162601  -8.007245   2.227994
Ta   -5.229172   0.857281 -43.427513
Sm   12.657987  41.919292  -5.326273
Mo   -5.115052  -5.751604 -12.205413
Pb   19.782388  21.075564   3.136565
Te  -22.151542  10.772441 -12.589718
Rh  -16.892874  26.612457 -24.788596
At   22.949083 -16.497059 -30.950396
Mo  -23.854878   8.480867   8.060177
P   -19.802592 -10.991525  -9.991324
Os  -40.686658   8.772389   5.507266
Hg  -15.735770 -29.845463  28.925664
Rn   11.346789 -33.048424  16.424126
Ag   -1.836833  30.988475 -30.581344
Ti  -26.298794 -29.177229 -12.557731
P    -0.878654  40.838521   6.508038
Ru    4.927219 -19.336403   5.347367
Kr  -19.263006  40.484119   0.737571
H     3.482780  21.898335   4.870583
Li    6.984957 -21.218562  -4.839236
Hf  -17.376057   3.231768  11.877614
Rh    5.432551  16.003903  23.529157
Ni  -17.418116 -21.076314  22.583760
Sm  -10.192921  37.362347  21.890828
Hg  -15.848973  15.285644  34.309493
Pm   11.966357  29.768251   4.360898
Ho   25.987914  11.092727   8.248791
Pr   12.454317  -8.173746  12.813016
Hg   -3.627086  38.345533  10.647632
Zr    8.188416 -29.463333  -0.857767
Yb   34.126838 -18.032285 -20.749407
Sn  -23.008078   8.466922   7.898975
Tm   40.796841 -13.711591  -2.685633
Hf  -32.797846  -6.124489   3.275363
Dy    7.018032   5.634828 -42.469835
Hg  -17.195849 -14.571900  29.779591
Si  -15.784787   8.743818  38.820861
Be   10.440483  -7.940859 -41.371154
He  -18.583761   1.960130 -11.048810
Co  -25.974218 -23.791815  27.930388
Sr  -17.724979  30.695474   3.170791
Mn   33.809380 -15.907018  -3.421133
P    10.456124  13.407811  13.342678
As    7.733385  24.526510  19.584787
Be  -32.420194  22.824421   8.721114
Eu    2.113590 -27.334665  32.552673
Te    7.609171  19.918234  32.705939
P    12.225413 -12.366811  -4.296183
Ag   -8.210480 -33.430800  25.945620
O    26.149157  -0.886134 -22.669888
Y    13.092496  15.442529 -24.488185
Au  -12.936518  29.939322 -13.621026
Dy  -20.749947  21.672657  -1.318638
Pt  -34.170679   5.116275 -20.373809
Mg  -36.200438  11.133281 -23.655778
Ga   23.989034  22.327838 -12.731554
Hg   -8.851733  12.137903  41.520117
S    12.753979 -18.694630  -1.432014
Ar  -38.800137  -8.749372 -19.907318
Ge   18.447336 -36.034330 -12.070490
Hf  -35.873120  -5.002103  26.046368
C   -23.770102  35.934639 -14.434366
Yb  -23.958516   7.462018  18.956776
In  -45.001446  -0.109921   1.748349
Os   18.873529 -21.271821   8.355980
Ge   14.493638 -17.374529  11.892778
Au   -1.289603  36.514874 -16.259159
Rn    3.533754  16.844618  18.408727
Re  -17.379895  22.006902  22.640553
Pb   25.879347 -16.346281 -31.663361
Os   13.387088 -20.652040  32.391807
Tc   25.964811   2.962393 -29.260019
Fe  -28.662267  29.851888  -4.073177
Dy    8.253780  -1.164152 -17.297643
Y   -23.430957   6.539755  32.832357
Be    2.702056  38.098471  -3.741441
Ti  -19.925928   0.881022  23.915981
Sm   35.505324 -11.626091  15.227974
Ta   -1.620983  29.651399  30.151514
Zn   -1.131286  -1.420492  28.088851
S   -15.340956  -3.849924  21.324380
Pb   11.473954 -28.857402  29.712878
H    31.160844 -11.594231   4.027059
Tb  -43.489074  -4.384365 -12.730877
O   -13.513495  41.453860   8.311704
Mo  -27.183798 -14.637983  19.914532
Te   -0.951029   7.099123 -19.235966
Mg   10.851483 -22.002831  37.253046
Be    3.253215   1.670392   0.816098
V     6.737474 -26.918382  28.618430
Sb   -7.105701  -9.175453  29.531815
Te   -4.638338 -25.570791  30.821727
Si   29.742028  27.074662 -11.480475
Ru   -1.749358 -19.382996 -26.599283
Fe  -14.369276  36.329890  -4.588082
Y   -33.932179  25.320686   6.172343
Sc  -15.149633 -16.135627  30.526224
I    16.735627   4.677908 -28.994575
Te   12.312597 -21.486754  12.994082
Nd   -1.628646  29.614977 -32.021658
Ce   24.642192  27.114086   9.357125
W   -16.499377  10.425900  31.921647
Rb  -31.755044   5.460891 -19.144876
Pm   17.441736  23.549665  11.237808
Ni    2.864399  28.786230 -21.397238
Po   11.108067  14.378575 -19.987975
Ge   21.867587  18.189258   4.998189
Ga  -15.700417 -19.931232   4.110556
Al   14.757676   5.505253 -32.850845
Gd  -19.158752   0.700524  30.408243
Hg   -8.589185  -2.774997 -18.044053
O    14.747381  11.884899  -2.316865
La   17.277099  24.573489   7.892613
W     2.546197  -5.528405 -40.536879
P   -29.332202 -19.262162  -1.364261
Ca   -5.784737  16.937946  -2.194149
La   36.513995  25.839428   7.536453
W   -32.819328  14.473636 -18.009112
K    37.156180 -13.855034  12.918111
Bi   22.439647 -27.841099  13.147658
Ga  -31.687074 -26.699971  12.055094
Pd   18.734192   0.933147   5.729958
C   -20.055461   1.486344 -18.091922
Sb  -22.662144  31.395309 -15.192996
Cl    6.121217  17.007637  17.636004
Te   -3.281046  36.957650   6.052344
Au   26.760485 -31.884450  -8.876477
Ce    0.662877  39.350737   9.915719
Zr   -3.545283   1.829452 -27.969139
Bi    6.940383 -25.449609  23.598219
Cr   10.863699  22.995976  35.582550
Na   -3.757255  -6.471384  20.033756
Ni  -22.441552  -7.277325  29.271083
Be   28.487918  -6.422835 -15.554096
Sc   25.424522 -29.624144  16.364459
Ba  -24.649579  -6.874767 -19.837286
Sc   -2.755785  -8.704169 -20.332344
Bi    6.614592 -30.067289  -2.373343
P    18.881787 -23.191685 -31.799053
C    -5.568736  -8.359949  16.278061
H   -25.480035   8.490849  23.684602
Rb    1.593827  23.380510 -21.719487
P   -34.179307   4.736376   7.848509
Rb  -19.923879  -0.116356  27.712751
Sn  -14.044288  35.769012   2.030833
He   -3.721617  13.697625 -32.144876
Pt  -18.474526 -15.612885 -27.594100
O   -18.492634 -37.456743  -3.652113
Tl    0.621971 -24.160340  21.545158
Al  -31.525090  -1.516681 -14.308979
Se  -13.607383  -9.803891  21.461622
Eu  -21.469871  -0.305318 -31.501687
Rh    7.054225  18.814264  18.951645
Sm    8.550197 -11.023821 -42.524452
O   -18.647581  -4.488794  27.185697
Ca  -13.355636 -11.744338 -25.003041
Sc  -16.652631 -42.410294  -2.980176
P   -27.938555   2.871270  17.361706
Bi  -14.646394 -14.259979   8.903310
As  -15.696500   8.785513 -40.225269
K   -31.518345 -30.000045  10.803073
Sr  -11.094498  25.082159  28.062445
Ta   43.983615   9.355235  -6.878358
Nb    6.219757 -27.474187 -17.762497
Ni    3.908307 -30.256545   0.273968
B    -7.625157  -9.360246 -28.470080
Hg   14.016605  38.005686 -12.388937
Cd   37.563886 -19.604885  16.372204
Y    20.961496  32.280393  18.131543
S     6.259569 -24.264050 -25.879084
Li  -32.777387  26.657752  10.454706
Au    5.190531 -15.115026  17.739135
Ir  -37.160024  25.387870   4.456130
N     6.261010   5.901299  33.661354
Kr   16.275927 -10.747992 -15.836943
Pm  -35.847309  16.081879  15.293171
Gd   -6.299825  42.500211   1.181339
Ar   -8.033633  18.777759  -6.586355
Po    8.446754  -6.742517  -8.342468
Cd   11.517211   0.306487  27.154017
Tm  -26.936211  36.253382  -6.025939
Lu  -37.426989  -4.890835 -22.496354
Ge  -16.719103 -22.921592  29.003195
Be  -32.186326  -1.802387 -29.622218
Tb    7.608054 -25.227709  -7.071362
P   -10.520437  33.578228   1.120707
At   30.177329  -3.740860   6.254356
Sb  -31.570321  25.811937  11.337376
Eu  -16.798207  -5.883188  14.094046
Rh   24.399785   7.963794 -10.579565
Al    0.939323  43.313088  -1.641903
Ce    0.028798  38.864062 -15.255888
Tc   -0.271313  37.484092   6.751501
Pb  -10.759494 -30.514746  10.712595
Pb   -6.764180  27.747509  29.182129
W   -14.803591 -10.742728  -8.295946
V   -12.223106  -2.694970  36.187881
W     3.463227 -24.018692  15.712213
Lu    6.497158 -26.172993  -6.701814
Pr   -4.101567  26.702833 -21.880913
Gd   27.073965 -24.464890 -13.502858
Tm  -22.537821 -28.992809  -8.937480
Be  -10.352655  10.213630 -18.202485
Ag  -33.106732  10.254994  -4.868617
Tm   -2.299224  34.675118 -26.634693
N     7.626421   1.447072 -22.276957
Ga   -7.034299   9.659099  43.611667
Tm  -28.042442  -6.990756 -26.259835
Ag   39.960217 -13.912966   0.989451
Ce    9.117422  27.371702 -25.012212
Ru   -8.023618 -22.731535  31.594716
V    16.617574 -26.201497 -19.806029
Ba   -9.229430 -39.876132   4.890601
Sr  -10.418970  18.843308 -31.713797
Dy    9.400569   4.559801 -18.712761
Tb    5.961398  -1.260318  39.957207
Re   18.673667  -9.483129   7.720475
S   -14.766789  -9.881642   2.724396
Eu  -38.442404  -8.233054  -1.266802
Po    4.121752  17.859922   4.646991
Ta    0.816215  36.103616  24.139492
V    -7.153652 -36.384855  23.309005
Li   -6.653290  14.439159  35.267200
Nd   -5.956187 -38.712993  19.271514
Co    9.041991  21.149301   2.888007
Ag    1.063453 -24.046712 -20.522514
Zn    0.754919  26.649220  36.656815
Dy  -32.214716   5.912167  14.681699
K    -2.225906 -24.009622 -22.308499
Cl   23.630104 -11.113227   2.208792
B     3.022368  -5.079665 -22.971887
Pt   26.602775   8.403975  -9.823026
Os  -15.323843  32.220108   0.468001
S    19.128264  16.398791   8.808909
Sm  -22.220680   8.986155   4.812211
Ag   -5.894068  43.826825  -9.526159
Ge   19.803391  15.785398  37.344802
Ar    8.745014   1.563234  35.783150
Pm  -31.254576 -25.087599   8.938895
Pt  -41.112667   3.634972   4.670738
Re   39.243788  12.229142 -10.466142
Rn   28.715785 -13.092076 -22.538843
Pr    3.223428 -25.159495  -9.551240
Sn   38.018381 -16.108853  19.245700
Mg  -16.957059 -35.825492  16.498000
Ca   35.280173   0.728178 -22.140633
Au  -15.313483 -30.931377   5.234350
Eu   22.899006 -30.436554   2.105626
Tb    3.264858  23.987672 -27.278585
Zn   23.833185  -1.470268  31.269913
Ru   12.905180  28.696049  23.170493
B    -3.382760   7.026661 -34.255905
Xe   13.723270 -21.063771 -13.717549
Sb   -8.964783  -4.331999 -24.568918
Ge  -28.750499  12.865725 -23.454895
Sc   15.796507 -16.100237  26.314410
Sr   -7.677965  18.062049 -11.685205
I    17.060471 -26.822747 -23.245599
W   -12.287665 -30.978012  19.000511
Ca   -0.265465   4.921174   0.236508
Cs    0.355241  20.891829 -16.267296
Hf    8.422297   8.385676   0.617654
Be   -5.640291  -9.153257 -28.564838
Ge   -2.729300  26.780549  29.117101
Pr  -20.589802 -19.535650 -21.172748
Sm   33.590782   6.405478 -15.019521
Mg   13.159161 -19.596379 -27.841911
Ho   25.884725  16.766433   5.037943
B    26.480586  14.790626 -33.935808
Tl   12.637061  16.280675 -35.246847
V     4.887169   1.464483 -40.994969
Po    1.966168 -33.120805   0.631842
Eu    0.446296  -5.464812 -22.474803
Pr    3.478921 -26.016995  -1.861464
Ba   -5.881247 -36.861566 -11.165521
Ir   12.477483  33.920197  10.213486
Mo    9.267081  -0.249035   9.750304
Ge   -2.865278  -4.763383 -13.076748
Ir  -10.464126  29.147229  32.965020
Pm   -1.874716 -14.381854  -4.996148
Hf   18.236001  22.152231 -28.310032
V    27.333689  14.599051  33.424531
Re   31.399129  30.445804  -3.795181
Li   -9.911679   1.029871  37.700689
Sr    1.776310   2.171656  28.987971
Ag  -19.090556 -16.657533   2.329250
Y    13.632852 -43.089273   4.911888
B     8.704595  10.430827 -15.247846
Mo   -4.700269  15.395653  18.821117
Cr   17.742513  39.390029  13.736177
Sm   20.752234   8.625470  37.235749
Ga    3.614259 -34.643266 -23.353862
Po  -13.752971 -40.378280 -14.634410
Cd   28.188468  -7.980240  -2.430079
Sc   23.291191 -27.624226  14.665385
H    17.344576  14.967915  14.006413
Sr    7.083159  -4.417936 -12.309963
Rn  -29.198873  24.124039 -10.790516
Co   -1.617494 -34.153436 -17.821975
Se   17.640652  -8.665824 -24.173445
Ba  -21.405854  -4.495083 -22.486927
Rn   -6.023783  18.891425  37.315275
Y   -23.424908 -29.373935   7.794854
Hf   -6.487893 -34.688485  26.740073
Sb   26.523166 -14.633895   3.101730
Sc  -23.069533  25.248857 -16.972641
Fe   18.187362  19.286785 -34.273263
Zr   14.584629 -23.816337  24.606433
Ne   -3.875492 -18.228228 -35.558562
La  -17.082106 -17.987172  -5.681615
Ni   -0.283941  39.158432  13.608940
Ne   -4.602643   8.240701   7.761992
Ru   -3.459561  -8.660725 -36.489302
Zr    1.688838  29.882920 -17.142156
Be   12.695565 -39.615153 -12.000216
Cr  -26.802331  13.467598  -7.312973
Cu  -24.073513  33.401650  -2.492858
Ir   11.040927  -3.583849  40.347415
In  -11.390837   2.928937 -19.392606
Fe   34.864045 -10.977071  13.602867
Rn   -4.758306 -36.288822  22.493880
Ce  -33.909081  27.683766  10.405680
Ru   15.090034 -12.305423 -39.539914
B     6.168300   0.867763   3.956641
S     5.880487  13.088217 -25.781472
Mn   18.714303  -9.624474  21.023808
Rb    9.763139  -6.558092   9.038985
Os  -28.735812 -29.067210 -15.506491
Gd   32.111053 -18.269928  -7.926592
Ba   -4.303061 -41.166012  -9.501816
V    13.502324 -35.599799  18.291468
Ni  -15.355507  -0.873352 -41.943820
Si   39.196231  19.938517  11.902504
Ti   -5.977733  -0.187652 -10.629625
Ca    5.507866  35.433723  27.775494
Cd   10.193988 -20.779644  -3.463883
Xe  -33.486866  -7.078183  29.266947
Hg   -1.532135 -42.801708  -1.637647
W    28.967511  14.421523 -26.724793
Hg    4.431100  30.965378 -16.712451
Xe  -29.640657  17.474647   7.944463
Ge  -14.551144 -35.658726 -19.352687
Tm   11.440969 -20.152924 -28.295699
Rh   -6.416322 -24.038781 -28.662322
Na   10.644034  -7.268467 -34.331467
V     2.443983  22.234092  11.233923
B   -23.188488  34.655905 -10.463504
Mn   30.918698 -14.720905   2.934679
Ta  -36.687246   1.923220   9.973928
Cs   -3.797998  -6.279236 -25.679577
Rh   -4.099904  -8.311020 -15.771984
Po  -13.924019  -1.202391  29.362471
Gd   29.708698 -23.792913  23.470398
Gd    3.745581  38.359550 -22.508237
H     2.319141 -35.527363 -27.330317
Ce  -37.830867 -18.141628 -14.341898
Na   15.666152 -22.326687   3.945310
Sc    4.426906 -41.761425  11.120783
Tm  -17.109941  21.595117 -24.614441
Na  -17.988061  19.754202  -0.424091
Te   -7.356788  10.798505  38.491135
Y   -22.186679 -25.120839 -16.742905
P    -4.461817  12.262361   2.659239
Sr   -0.050760  15.111985 -30.222307
Ni   15.357939 -31.161489  24.409470
Sn    2.561263  30.481307  13.622211
Sc  -17.418660 -21.698429 -25.254361
Lu    7.367181  23.571648  -4.995516
Ce   -5.137274 -22.869693 -14.782665
F   -20.947937 -23.210772  30.817692
Ne   28.169659   3.139147 -20.954988
Mg   20.493344 -13.892193  31.496642
Sm   -4.262322   1.287561   8.661863
Se  -10.060112  34.837214 -26.449656
Pb    4.211399  -5.754282 -32.030530
Ag  -40.258209  -2.469333 -11.867695
As   18.340900  21.704367  14.549958
Dy    7.535821  -0.705007 -10.195205
H   -12.829706 -37.231610  13.028140
Co   -3.615031 -32.259140 -18.138774
Co  -17.088035   2.625795 -14.955615
Ga    4.425098  -5.852918  31.494106
Tm  -32.724047 -22.279878 -20.407264
Ar  -27.322003  26.292111  12.248259
S   -20.243076   0.812172  32.327696
Sb   -6.102490 -13.590877   4.104513
Hg   23.750610 -24.415356  -9.961220
Pd  -29.784913  31.381224   5.756276
Si  -22.447474 -30.629640  13.451948
Kr    3.884485   4.191494 -36.635131
Yb   11.365319  -1.406128 -33.347607
Cu   11.297161 -20.854931   9.594473
Tb   -3.583336  -3.164454  42.678069
Ce   -2.074388 -20.957389   2.606901
P   -25.049800  26.005116  25.913486
Pm  -20.584816  17.355897  -8.764423
H    26.430394  -0.180170 -28.372911
Ho   21.565875   5.480040 -39.720305
At   27.974632  29.090130   1.474461
Pt    0.911662 -36.695373  -1.389994
Cr  -17.429493 -20.667889  23.631956
Rh   43.535010 -12.829832   5.182635
Nb  -12.851189 -34.933993 -21.668051
Gd   23.082826 -35.658662   9.871339
Tm    1.146094  -1.811554 -25.715813
Sc  -18.811886 -22.447867 -23.683552
Po    1.810795 -14.348380 -30.309740
V    -9.453643  31.155068  20.191959
Sm   29.651086   3.287240  -3.751495
Cd   10.271751   1.511768 -14.509942
Br   31.308040  -3.174555  25.782813
W     7.808231  -1.055251  -3.542535
B   -12.780306  42.736494   2.503647
Mg  -23.064239  -1.540096 -34.901527
Bi   22.335481 -15.100127 -13.464319
Y    12.513660 -36.361290  -5.325511
Ce  -34.533542   8.122713  -4.472901
Sn   39.368691   4.865186   8.487624
Nb  -12.437319   2.955619 -29.608901
Tm   -0.515924  28.033007 -24.872913
Os  -36.861082  20.098662  -4.181089
K    15.148944   0.205512  10.943296
W     9.298588 -24.388446  21.305176
Hf   17.735564   7.199219  -8.356495
Ag   31.056167   9.427780 -23.743698
Pd  -13.937022   6.047255  36.368060
Pt   19.355835  13.786957  17.009721
P    28.116192  18.477160   2.396178
Hf    8.754303 -13.709970  11.699824
Nb   30.561826 -27.400958 -17.374030
Sc   26.419937  -5.734480  35.674376
Be  -10.177571 -15.718749 -24.570444
Nb   -6.695723  -7.080006  42.387367
V    16.459326  -9.116361  20.483181
Na  -29.264489  -8.361053  29.206324
Ru  -42.787118  -3.404525  -7.589385
Os   -0.642465 -40.981991   8.827111
La  -33.048240  17.661485  -5.893399
Cu  -42.938408   4.185426  14.926161
Br   34.555841   0.837973  -6.446181
N    13.352868 -18.684526  37.752919
Cu  -41.650995   5.807788   4.554903
Pm   33.757464  -5.546292  -6.724402
Tc   35.177862   5.355070   7.914515
V    -9.469755  16.033076   1.962513
Pr  -39.352112  16.968912  -7.511496
Xe  -20.674933  28.560050   5.884664
Cl   24.899128 -14.746042  23.742394
Co   28.102837 -21.788622   3.790696
Re    3.974094 -16.552308  38.742907
Al   23.773466  28.490968  -9.626881
C     4.677865 -12.323764   8.117687
Ta   14.836096 -23.754934  33.398293
Sm    6.047564   0.826501  33.863689
N     0.723493  17.000674  33.535588
Hf   15.802540 -31.741578   7.439992
N    -1.063576  38.212223  -0.106428
Zn   32.726319  18.705454  19.639340
Ru   -7.696232  31.561756  25.943317
O    23.621090   8.642264 -27.549546
Ce  -15.232213 -23.289725  16.197096
Pr  -16.405887   6.803439  -7.281420
Zn  -18.120104  22.818179  34.256116
Hg   40.654142   3.832650  17.371822
Rn   -0.687855   9.367574   6.283876
Eu  -12.636766 -40.219452 -11.770145
Co    4.471291  16.898138  -1.577076
Ru  -11.181160 -19.040507 -26.376544
Pt  -11.186172 -21.987347   8.666978
As    0.239238  27.318005  -7.478554
Ag   22.157055 -11.233661  29.633740
F    16.421641   8.070939  -0.471968
Sm    9.106932   4.033209  39.543710
Re  -16.492297  25.143338  -1.875541
Ge   -0.079804   9.974472   1.029146
Ga   13.737077 -27.104569  -0.277117
Rb   -3.291909 -20.951082 -34.170241
Cd    4.649961  34.779203  21.052529
Pr   26.165424  21.107242 -23.873476
Zr   20.980170  -2.078884  25.101880
Os   11.350362 -16.817519  19.712114
Dy  -18.911888 -32.016365 -14.868703
Ga   -8.606563 -35.364244   7.937237
Sb  -26.688799  11.384838 -26.777473
Ne   16.857929 -10.526149  33.004787
Co  -30.710316 -24.204724  19.175719
Ag  -21.836197  11.742159  -3.153370
Ne  -18.878753 -36.800780  10.405484
P     7.838293 -10.931678  23.568048
Rn  -43.855773  -1.720675  -7.406518
In   30.457025   6.055385  32.991733
Kr    7.935991  -5.238108   3.332506
Ge   28.971242 -14.763847 -16.820860
Rb   20.370804  -6.804762 -20.369428
Tb  -11.114296  30.119481   2.849057
Ca  -15.677217  23.053068  -1.520177
Nd   33.267241  22.363255   0.799502
Hf    2.709190  -4.242075  19.164934
Sr   29.904897  24.691281 -21.777776
Sr  -23.621745   2.483152  26.615699
Xe    1.106345  28.640212   3.336364
Rb    0.356560  11.557711 -10.921325
Fe   11.792527  -9.471283  21.443466
Po   31.743085  -8.832043   1.399629
Tm   15.384854  29.226848 -19.836166
Pt   27.578939  23.759044  -8.809858
Pb    5.934033  -6.339707 -43.857799
Rb   -9.386719  -2.027299  -1.302883
Rh  -14.365816 -28.686827  -9.264407
Ho  -17.697662 -34.172117 -10.320774
Sc   26.035033 -11.385645  29.870446
Sm  -16.891981 -28.746864 -31.092027
Cl   10.458307 -29.338106   3.602775
S     0.470588 -17.362203  18.346582
Sr   19.087029  33.945669   3.058855
P    16.906414  16.715225  27.364361
Yb   20.612685 -13.079486 -29.097024
Tl   21.679733   7.770578  -7.923394
Y   -25.001401  26.529591  19.486901
Ti  -20.730227  25.935597  29.069974
Co   13.039446  25.504436 -21.137079
Ag   -6.560485  12.388696  29.822249
Ho    4.914631   2.862011  33.696301
Bi   11.316842  -4.471457   8.386445
W   -13.486307  27.470156   5.270592
Cu   15.744190  31.413125 -22.887147
Mo  -38.222560  -6.988579 -22.100100
Cd   10.511013 -28.702647 -15.278300
Yb    2.548215  37.412868 -10.397165
Re   12.790628  38.193311  -8.787890
Ge  -29.545801  18.237198  15.018613
F    10.487931  20.296996  10.214145
Ni    5.577389  22.753344 -26.973161
Ti  -23.260156  21.982287  15.425066
Ar    7.599405 -13.705743  -2.260634
Ca   12.671793  -8.723135  32.340538
Ce   30.668773  17.558426  -2.481975
Lu   -3.293857  11.832337 -30.509856
Sc   11.919829 -13.081624  22.047662
Yb   -6.200764 -25.102837   6.062177
Pr  -14.373077   2.828842  -0.884806
He   20.886463  14.257059  21.747033
Hg   -7.747351  -5.616223  43.666738
Gd    1.992528 -30.813660  -4.086989
Lu    6.211177  21.466488 -31.326921
Te   18.468353  38.444499   7.108083
He   39.443315  16.102751  -0.432623
Ir   11.398671  21.790467   9.636203
Dy  -22.313439  -3.582833 -15.738469
Mo    8.638136  23.713634  30.310646
W   -12.603312 -13.045892 -21.306005
Fe   13.162913  17.996350  21.670720
K     9.282119  35.150622   1.623605
Ca   -7.510193  10.129646 -38.565690
As   21.758862  13.841786 -25.573900
Nd    1.923570  12.340066 -12.289556
Ir  -27.907936 -13.663823  -5.033632
Lu    1.848595  -1.476148   6.746872
Ce    8.802716  25.128908  17.462804
Na   42.145039  11.855031  -7.998894
Lu   13.648888 -21.460637   4.247376
K   -34.116159 -25.145909   7.397922
V    32.657270 -17.982179   3.316576
Bi   12.974536 -38.016140   3.486376
Cu   11.371710 -13.211992  32.155234
W    10.519022  -9.806347 -22.600058
O   -26.732184 -28.842349 -15.729161
V   -22.075877 -22.593914   4.991516
Na  -27.921614 -32.630138  -2.190497
Te   -0.851886 -42.851100  10.818961
Ag    9.836110   7.031258 -19.650277
S     6.829419   3.633112 -20.234095
Xe  -20.902002 -25.487732  -2.102265
Nb  -13.154157   9.734899  -6.942909
C    15.232085  24.542980 -17.093584
Tb  -15.155443  30.453970   1.308697
Ne   19.041308  20.986660 -19.154367
Ca    0.019797 -10.573759 -29.490091
Sr   20.728492   9.892111  35.456610
Rh   21.311625 -18.065778  11.595839
Er  -31.441386 -17.517450 -23.716258
Mo  -24.326556  21.038230 -29.794885
Se   11.028323 -32.530125 -19.371115
Ti  -12.386656 -38.233224  -7.612176
Al  -33.717028  15.239554  -4.743309
Pm  -10.028189  11.249454 -24.203330
Nb   20.068539 -13.542922 -27.017290
Sr   13.823096  -9.119269 -21.379956
Ne   22.346011   3.332305 -26.286804
Gd  -10.899873 -35.046988   8.760911
Pm   17.046124  20.754000 -18.488023
Cd   -5.024767 -10.149603 -13.363053
Pr    4.280247 -16.938481 -24.717433
Rn   15.158765  -8.682734  10.560571
Sm    1.406132 -11.932062   4.677124
Ta   -8.176699   5.595945 -15.723355
Po   -8.505517   8.218254 -18.921704
Ta   28.307921 -13.946840  21.950072
Pt  -28.556757  -0.778672  17.227946
Dy    4.490522 -41.703546  -0.322650
Dy   23.195831 -19.069020  24.931302
Au  -13.454840 -37.212230  22.687889
Re   11.931576  24.692099 -21.181119
Cl   -0.388972  23.514920 -10.143226
Zn   17.741059 -11.362553  30.143478
Hf  -33.211194  12.866333 -23.589415
Zn  -20.064208  22.257184  -7.390704
Nb  -29.426157 -19.721680  -3.874566
Sn   -3.521427 -27.252606  19.411607
B   -23.552123   8.680969   2.936046
Y    21.680592   4.280639  -2.652157
Ni   12.537032  12.101824 -11.804656
Os   -0.526275  15.575220  -9.692172
Te   29.097576  -0.897189 -14.879231
Eu  -14.188315 -15.983440  27.777131
Ba   19.157155  -8.634216  -4.365628
P    18.412735  40.024326  -5.839341
Os  -36.136333   4.976394  -3.260785
Os   39.279131   9.034364  15.267472
Tm  -23.009845  16.954033  19.050533
N    25.325784  -6.373728 -37.106066
K    31.379337  15.834962  13.362777
Ne   28.368501 -13.037792  -7.626351
Pt    7.393640  31.509714 -23.719963
Te    6.516371 -33.731728  -4.298831
Nb  -22.773795 -27.992109 -20.923301
Sn    0.088366  35.715770  18.566048
Eu    7.473567  13.592648 -28.325652
K    -1.955246 -12.832717 -29.404429
Ca  -28.206161  28.611252 -11.836434
S    37.695018   5.522548  -3.720010
W   -12.945142  38.478786   1.035786
Ge   26.053227 -33.275478  -1.104605
Al  -38.380091   2.429803   2.272162
Tb   -6.944724  -5.084034  27.584155
Kr   31.025618  17.950535  25.390290
Kr   21.730642  14.769588 -24.128964
Ir   -2.505301  11.773450  -7.363395
Dy  -17.535205 -28.578853  14.476278
Ce    6.649401 -23.422793 -10.088077
Zr    2.231834 -18.835912 -30.789225
Ca   13.626443  27.415884 -26.277639
Tm  -10.082476 -20.942268   8.971438
Ca   25.471709   8.284046  20.798190
Zn   11.022092  40.821449   0.285763
K   -17.859270  24.131583  21.090276
Pb  -17.239459   3.349934 -27.376452
Yb  -29.642552   1.062028  18.471302
Hf   15.852992 -25.409781 -19.780069
Mg  -42.126377   3.226344  15.007543
Tb   13.588223  12.469935  21.477000
Ca  -21.045449  -3.299919  34.902332
Mo  -10.425411 -26.218224  34.865860
Sr   26.126983   2.533461  34.457191
Pd   36.109518 -19.993384  11.398393
La   26.098955  26.628708 -21.644897
Gd   32.149444  24.347212  19.633122
Tl    3.048308 -24.763946   2.855535
H     1.644891   0.764875   0.820991
Xe  -22.673306   5.453822 -34.098306
Os    0.104153  14.569344  20.984041
As  -25.682058  16.558248 -30.674066
Lu   -5.896556  11.108555  11.402313
H    28.108498   6.586929  17.757916
Mo  -19.878491 -20.395531 -32.642028
Ta   19.256146 -18.279821   8.760014
Co  -22.807448  -5.849578 -23.751442
C   -12.547278  27.624415  -8.603401
Ag   32.080423 -21.050125 -11.704027
F    13.807221 -22.580767 -25.064927
Cl   -9.581137  22.157592  38.100960
Sb   18.579728  -7.828642 -34.778433
Ge    3.594388  12.166274   8.972741
Mn   10.035546  38.359159  11.635457
Sc   34.842292   7.922567 -15.950194
Te  -39.549530   8.199695 -17.144104
Tm  -19.934282   2.844453   3.294458
Ru   13.104098  -9.539566 -24.335712
P   -23.592001 -30.633127  -1.696155
Mn   -9.341192 -11.964973 -11.860241
Tm    4.609617 -27.661440 -25.447829
S    -8.641356  -2.222904  -8.030670
Nb   -2.482446 -39.489902 -11.200109
Mo    5.815964  21.936731  -5.769883
Nd   32.305893   8.576077 -24.026917
Ba  -33.876470   1.958931 -21.611428
Be   -6.271056 -12.030989  18.383366
Rb  -37.910149   0.294097 -15.916463
Tm   20.310226  27.318362  -3.431221
Ca  -42.007612   7.593197  13.060653
Au  -43.711519  -6.467103   0.495365
Ni   25.387933  11.054247   2.661876
Co   -5.327400  22.453585   5.623566
S     3.795860  11.257542 -31.617907
Mg   -9.220614  -8.194616   1.196849
Si   39.798833  -2.356825 -21.076420
Pt   15.080419 -22.365212  24.211196
Sm    0.181979  13.531465   1.036319
Mg   -2.740722  17.419348 -30.939900
Mg   12.096026 -14.140465   8.072123
Be    8.198861 -24.987397 -14.196921
Mn   10.391166  40.640402   7.632459
Rb   26.530687  -9.029370  17.980179
Tm   -4.809992  -9.396315  16.219779
In   13.392621  -0.845736  -1.042070
Sr   19.064967 -13.361170  14.369039
Cd   21.271952 -26.022628  29.875475
Na    9.751232  29.032264  19.325494
V   -25.783839 -20.641234 -15.283283
Ni    3.264897   2.198054  -1.441531
Os   -5.264035  31.389589 -22.793873
Fe   -6.700007 -21.595518  36.811949
K     8.882129 -40.078243  15.508370
Ca   12.864833 -24.558361  29.521169
Nd  -18.033986   8.997194  29.864613
Ni   16.854515 -32.760967 -22.744197
B    -0.050590  -9.499189 -41.236408
Ar  -25.068698  22.306734  -4.308256
As   -8.620830  32.945130  10.358766
At  -13.050624  12.975388 -24.260767
Cu  -11.389576  33.325953  16.922589
Hg  -22.980800   1.685277  20.582003
V     1.816010 -38.329351 -10.876883
Na   16.554422 -25.871677  -9.659834
Pt   23.551363 -36.238775  -6.900441
Rb   32.113304 -11.376283 -23.630381
Pb  -16.012390   1.362220   6.889573
Yb   -9.361340 -24.133695  21.728451
Sr   -8.735922  21.940544  -5.297367
B    24.988529  -3.894028 -26.031929
Po   -1.646958 -17.770831 -26.108895
H   -36.042808 -11.797234  19.059536
Be  -20.151709 -26.979014   9.024222
Kr  -36.309890   9.936138 -21.028505
Cd  -12.757500 -11.722458 -37.421666
Ag  -30.095775 -24.766683  -4.949307
Fe   -6.271624  -8.604498 -34.286713
Yb  -33.295725  -9.664986  -5.132722
Ho  -21.212330  23.622957  -2.208065
Sn    4.580550 -38.840909  -2.184088
Kr   15.941446  -2.468854 -26.089719
Ag    3.349852  32.033975  10.105950
Ti    8.026895 -12.463307 -14.764520
Sm   -7.218919  38.522343  16.317516
Na   11.268134   1.653136 -39.390670
Hg  -28.004276  12.322594  11.075899
Xe  -20.394312   4.519072  20.911294
Pd  -11.326914 -17.853881 -39.025246
Br   13.381826 -32.272830  20.243895
Ge    2.158552 -31.014695  30.126697
Ta  -13.121742 -11.508384  26.744832
Li    7.492754  43.308150  -8.131551
Ga   43.015860  12.345310  -3.766842
Cs  -18.439194  17.638615  25.721951
Po   16.838816  29.628544 -16.188460
Yb   28.491723  34.022659   9.017374
Pt   27.332748 -25.316964   9.525442
Te  -17.018733  19.507620   1.763113
Pm   -0.287385   2.883996 -22.623250
Pb  -39.196994  -0.411404  -5.972432
Zr  -20.893766  31.863565  -7.189078
Er   17.442259 -20.197880 -30.179045
Al   24.575663  13.161058   5.841942
Xe  -32.254933  -4.820945 -20.450137
Tb    4.052734 -38.623100 -15.163834
Re    0.367296   5.748812  44.415303
Tb   -5.623300 -21.599974  -7.326366
Y    -8.815890   6.960357  37.758398
Se   11.237028 -12.857993  -0.233196
Na   27.781896  19.682731  12.456848
In  -27.463723  19.231586  25.423454
As   18.691253  -8.220808 -37.880931
Ru    4.787958  29.866592 -18.280708
Ti  -23.452854  22.638710 -18.773947
Cl   -2.872869  36.555175  18.470963
Al   -8.939792  26.875323  -3.376056
Ba   -7.343890 -24.285848 -25.490400
Yb   14.647642  -0.609552  24.024999
Gd   21.607592 -33.480646  19.505635
Ne   17.771216 -35.371563 -13.112416
H   -34.693542  -8.427376  14.208415
As  -39.811383  -9.443445  18.015525
Er  -15.807049  -1.190647  30.521976
S    -0.774983 -22.717150  38.687548
Dy  -14.378225  33.613808   1.478868
Pr    1.410191  19.636597 -40.074649
Lu   -3.110108  36.861319  -8.447652
Ge    6.407529  -8.296468 -34.895767
Bi  -12.057471  25.904755  16.386169
Be   -2.586986  15.153587  21.588674
Zn  -32.040609   2.310805 -22.905691
Ca   30.876353 -17.070558 -21.967155
Mn   41.106921   8.111493 -16.740333
Lu  -19.015620 -36.270892  13.674012
Rn   -8.613627 -19.763653 -38.745595
Mg  -11.982332  12.627780  -7.423036
S   -20.087608  28.669048 -11.909478
Ce    6.982033  10.581812  -7.402292
P    33.177039  -1.604025  25.069725
Ar  -15.884654   5.746164 -29.776552
Gd  -34.486357  -7.583834  20.007780
Ti   24.721777 -16.782605  -3.718919
Te   27.263934  27.023972  17.306454
Kr   31.267115  11.835680 -30.229989
Ru   28.001419  19.884686  20.462085
La   -8.129225  19.692267  -5.774870
Li  -21.382896  28.068238 -19.129124
Zn   -2.600565  18.811427  25.285359
Kr   -3.464722 -15.550251  -2.600084
Tb  -26.044777  13.125605 -28.444392
Ce   31.085968   5.432804 -33.042405
Hf  -13.854443 -27.843479 -22.870366
P    11.900494   5.151546 -31.989124
H    26.450430  15.492262 -25.729976
Tm    8.238784  20.899689  18.192167
I    27.771666 -32.663665   0.904371
Mg    0.359088  36.621595   3.603129
Zr   19.843512  19.597416  -4.225569
Dy   13.236615 -25.937692  17.599133
Pr  -14.796997 -11.112572  27.136917
Dy   -7.535903  28.627714  26.112219
Cs   25.457013   1.151844  -2.476595
At  -13.745985   4.823306 -17.930413
Cr   14.410132  40.821916  12.996291
He   -1.490454  13.869801 -31.958572
Ne    1.447534  35.302290 -14.203170
La  -30.243073  -6.445970   3.744953
Lu   39.719656  14.595235  -4.809771
Ag   14.767255   5.576649  37.197599
V    13.713073  -2.034670 -15.950621
Sr  -21.932999   0.739115  13.030742
Sb  -21.087865 -25.089448  28.390539
C    -4.889242  17.735837  37.597785
Ti   10.522075  -3.909623  32.990394
Cd  -40.054973  10.887758  -5.912111
Sr  -40.593061 -10.396462   3.048741
Sm  -12.934949 -34.293918 -16.989549
Ne    9.148420  14.546349  -3.877492
Ar  -31.340810 -22.678803 -18.261114
Ga   -5.065486 -36.792127   8.613716
Sm  -24.321179 -21.785062 -12.669938
Rn   14.422453   8.992518 -24.472043
Nb    9.539043  16.832350  27.905590
Y     5.829933  27.572950  26.269192
Pm  -21.927374   5.786232 -30.593611
Ti  -21.188999 -11.137732   8.442451
Nd    7.864826 -22.703279  13.511720
Mg   -0.935809 -27.923110 -19.584459
Zr   18.319564  17.236656 -21.011139
Nd  -11.515216  42.217999  12.415642
In   13.232104   3.422810 -29.637021
Sb    0.331920  -1.305132  14.962169
Au    0.216509  20.447744  11.411562
Cu   25.048906 -13.854417 -28.478405
Ga  -21.050657 -36.832631 -15.581309
Pm    4.394622  25.189805   8.504512
Hg   30.611788 -19.138517  -0.686860
Yb   -6.801743  36.900452   1.991512
Te   -0.860191  40.222613  12.115463
Sm  -35.400119  12.618672  13.297885
Sm   14.543320  30.500715  11.965778
Re   17.238032 -31.008061 -23.084312
C   -35.723438 -25.824389  -2.454511
La   -8.149214 -19.860744  25.134177
Cs  -25.926800 -16.154926 -26.416814
Ru  -19.761395  35.458711   1.048906
Zn  -37.880730   9.860033  -2.294005
Se  -19.127829  17.599603 -17.997307
N   -22.781994   5.939504  12.111506
N   -30.708921 -22.007602  20.899889
La   33.854325  26.967656  12.301321
Er  -38.474106  -6.415064  18.516500
Ge  -30.144918 -12.300261  22.207968
Nb  -28.301526  17.613189 -31.272648
Pt  -33.722657  25.695033 -13.776866
Sr    2.786958  19.464414 -34.775574
Tm    8.875857 -34.945593   8.391135
Nb  -17.140739  30.113778 -10.154966
H     1.972419  16.228747   3.682435
Au  -10.533892   9.346277  13.055778
Pd   -6.122065  -1.477053  -6.775152
Nd   25.139515 -22.760668 -21.772279
V    20.835186 -17.400153 -29.166976
Eu   -0.138434 -29.414264  21.108439
Se   28.299424 -12.843397 -11.599317
Ba  -10.357511  34.404078   1.952457
Mn    9.149221   8.512682 -37.057029
Sb   -6.546851  -7.053404 -35.599042
Te   -9.493324 -34.578124   8.796376
H     0.185220  16.036178 -20.017167
Nd   38.981964  -9.873870 -20.693883
Zn   -6.910206 -39.732032  13.034572
Pr  -13.150662  -4.635030  35.127639
Rh    4.522231 -13.143196  21.977227
Pr    7.434448  28.201388   7.931469
Lu  -39.756655   3.530819  -1.581221
Kr   -0.918582  23.755486   4.824287
La   -5.279527 -37.384171   5.627663
H   -10.185175  25.026051  32.594544
Sm  -18.577670  -5.756638 -24.213410
Ho   22.638338 -18.146680   9.934806
Mo  -22.383818   1.303975 -29.192116
Ti   19.112867   7.578046  -4.916690
Eu   17.682135 -16.408020  18.176827
K    -8.415508  22.462366  32.215904
Tl   -0.427737  -7.743727  18.461583
Nd    0.563387 -10.988480 -38.422282
Li   22.772938  29.374365  24.041567
He   -4.941666  36.016570  -5.369511
Fe   23.499356  -8.913418  31.038101
S    -1.546756 -38.206393  -6.147643
Be  -18.291607  11.766119  21.824641
Fe   -9.024287  16.278755 -22.624123
Tm   13.077395  37.533259  22.438182
Ru   13.813176 -14.297711  10.706500
K    26.165299  28.735301 -17.463520
Cd   32.169305  13.128533  -8.803332
Po   -4.439761  36.315898 -17.152983
I    -8.160534  -1.202953 -40.643286
Mo   11.548097  14.444169 -32.305769
H    12.370006  24.455621 -34.119213
Sr  -10.941671  -4.810058  -7.561628
Y    -9.310717 -15.864341 -37.882197
Ir  -24.299085  13.004265 -29.162949
H   -22.058591 -18.247824  34.011239
Rn   23.262691 -18.180401 -18.688837
Ag    4.110261  -8.845947 -32.317299
Cr   23.544789 -26.326270  14.070593
Ge   -4.024294 -12.625864 -25.854159
Li  -34.205709  16.337749 -10.559564
Zr   36.111470 -11.696875 -24.759600
V     1.104219 -22.027116  17.266690
Re  -24.304865 -21.338405  11.609374
Cs   15.596653  -2.007656  25.197567
Co  -17.744071  27.962476  17.451512
Ar   12.298406   3.867543 -28.508307
I    21.384091   8.222940  -6.480264
Au  -39.911675  -9.089191  -1.154185
Os    6.657538  -4.745039  43.990975
Ar   -0.087697  -3.913442  -9.511681
Si    2.890739  15.287332  20.429796
Tl   15.186114 -10.008058  22.742541
B     3.595957  -6.247028 -29.972161
Bi  -20.360405 -21.040592 -33.704608
Ca  -16.979253  -2.523393  21.627584
Sn  -14.593233 -39.587275 -14.330006
V   -19.764261 -12.063604 -19.517693
Po  -26.385392  13.612434  16.258306
Ga  -34.784848 -14.230613  -5.930239
Pt  -11.355701 -23.486095  23.773063
K   -19.237807  11.881321 -17.758786
Sr   35.103075  -4.666125  11.042057
Cd    0.786595   2.651520   1.410366
K    30.322893   2.159509 -30.472118
Co  -31.273922   4.119520  -8.849559
Cs   28.878853 -27.260391 -21.252739
Lu    7.452237 -42.324919 -13.466035
Cl    5.095761  14.019907  16.251313
Bi    6.277255   0.413261 -12.538128
Mn   -9.002618 -16.874339 -31.568893
Y   -12.786682 -23.657935 -17.769665
Nb   -0.776293 -21.701693 -16.899789
I   -11.747785 -32.326065 -16.582278
Pr   11.430605 -12.382664 -19.117689
Cu   -5.304806 -30.113774  22.776146
Ta   -4.372847  22.585032  37.055791
Bi    9.736470   7.146846  18.474307
Mo  -24.232565  18.930615  22.480817
Dy  -15.973305   7.061242   9.796064
Tc    6.126774   7.749677 -33.464965
Na  -42.625748 -10.064613  12.660688
B     6.527152  26.964361 -35.815609
Pr  -11.807330 -15.411207  15.916980
Sc   22.775487  -8.817713 -19.593239
Sb   22.574495  37.502432  -9.164327
Ca  -23.824626  -2.641091  35.394279
Tc   14.108396 -25.592115  24.272437
Ge   15.841436  26.028792  22.553539
V    26.044755   7.427971  -1.538987
Zr   14.974049  -5.376295   0.054952
Ga   -9.865391  15.119210  20.469603
Ce   15.333329  35.599430 -19.081516
Ba   -7.017432 -22.956779 -37.965570
Pm    5.090429  -3.465287  42.008471
Al   17.659199   9.079487  24.919918
Hf   -1.720846  -0.820182  -8.151466
Gd   -4.628938  -1.103696  -5.108742
Pr  -38.354160 -20.541336  -9.873982
Si  -22.686941   9.527030   7.366112
Pd   30.371644  23.074017  15.747344
Po   35.156618  15.846149  23.444800
La    6.671720 -29.587285  21.425447
Tm   17.378613  -5.500553   7.197435
Y    -7.433603  29.348007  18.980807
Se    8.060125  -6.212202 -30.934864
Hg  -32.138207 -11.022001  30.227953
Ta    5.031794 -38.034467   6.896251
Te    4.407677  11.401813 -10.932656
Si   -1.420203 -28.459371 -18.305260
Gd  -30.953004  11.001743  20.217422
Ca   10.571100  10.200802  40.543629
Kr   17.048843  39.109416   3.286914
Nd    8.852192  39.302194  -9.315792
Cu    8.082883 -22.610699  -3.811866
Tl   12.603393  21.698768   6.055544
Zr  -23.109383  -9.333459  32.124924
Re  -25.754872  -7.086983 -11.264259
Sm   -7.768096 -17.821081   7.529890
Bi   13.882426  -9.883167  -5.049282
Ce    4.593007 -27.134262  28.425218
Tb  -11.554351  30.987520  30.293227
W   -16.551905 -31.886677   7.347181
Ca   19.911786  32.803421   0.801975
Si    1.976195   2.951194 -15.343297
Pb    4.199645  -1.449392 -29.127964
Cr   10.628907 -36.620259 -15.894180
Ho    1.030615  18.739344  33.534183
Eu    3.032094  23.582505   8.393974
Zn   -7.365613   6.953343  10.196628
Ge  -13.835244 -26.848429  -8.122973
Y   -18.037505 -28.413442  13.150944
Kr    5.521321  -9.047466  -9.213357
Cd  -13.938225  -5.959880 -20.692796
Au   21.708404   5.200054   0.305424
Xe  -36.706899 -13.746606   4.272996
Si   20.917494 -13.997974 -36.530187
Si   33.684844   4.530301 -27.474644
Cd  -21.167501  -5.064609 -15.672423
Yb  -19.179204 -20.567933  -3.011893
Be   -8.376012  42.656765  -1.847490
Ni  -37.668741  -6.445588   3.622458
Ne   17.617559  -4.351107  22.874293
Pb    0.754998 -30.761442 -30.564199
F    12.399733 -12.523815 -34.903730
Nb   15.728161  39.520790  15.721402
Ge    0.515883  40.650260   3.026550
Eu  -11.479800 -23.258194  18.262120
Cs  -22.470101 -31.548537  -0.698518
Ru   15.121041  26.952663 -32.170160
Pb    8.393161   1.942962 -24.106787
Fe  -35.021402   7.110061   8.290950
O    23.506660 -18.189699  20.081792
Gd   14.706154 -18.876223  27.413894
Sm   41.151667  -7.008048  17.092728
Po    8.056767  36.594914 -16.544977
Tc   -9.228844   4.836460  35.938993
Mo   -4.050309 -14.395447 -35.646520
Pt   22.353960   2.016964  36.822516
S   -21.895071  18.269138 -31.510865
Ge  -34.940128  -0.123397   8.828961
Br   -4.191312   7.921643   5.955108
Mo   -8.971909 -12.424091 -34.273117
Tl   18.509928  19.684871  22.593273
Au  -14.247628 -24.783114  21.465695
Rh   16.923680 -26.063581  30.254485
Yb   -8.855203 -31.826995 -20.076569
Y     3.545937  24.943389  16.744446
B   -28.565266 -17.041417  -2.258297
Ge  -18.602774 -25.024342  -9.637284
Er   26.978204  23.041454  24.567335
La   33.431889 -21.578488 -12.727873
Kr    6.174928  25.633864  20.094139
V    12.699843  20.044419 -32.506067
Ti  -29.265787  14.264810  29.604768
Po  -12.411337  10.820739   2.140159
Cd   21.883424 -14.581501   6.836888
Sm   -8.014727   0.264071  28.074072
Ba   13.497210  26.626700  -9.942184
Ga    6.790531   8.760645  14.353909
Nd    0.861219   8.473931 -33.779868
Be   15.641416   5.349117  16.743721
Tc  -37.476363   9.081402  10.881315
Po  -26.740156  20.617482  -8.920800
S   -41.845482  13.504446   9.784446
La  -24.957604 -17.995478  -4.346428
Dy   -9.991340  22.860787 -34.549706
V    -0.402033   3.854680 -22.353188
Ce   21.276379   1.366094 -21.024972
Sr   16.943921  25.021587 -20.339462
H     1.986697   5.286602  41.019272
Ni  -40.103968   9.034335  -9.054688
Tl  -32.766081  25.359786  11.777376
Mg   25.501488  20.223360  31.432939
N    17.518945 -13.914490  36.699813
Ce    2.774810  30.392217   0.279864
Er    0.404092  43.105449  -5.439687
Ho  -15.443890  28.816679 -27.559022
I    12.218495   4.968949  36.013376
Ge  -16.965781  20.831576   0.009156
Hf    0.948475   6.461409  29.495502
I   -19.037134  29.560768  -9.624799
La   -7.021971 -31.774553  16.913809
H     6.981980  12.600082 -28.415557
C   -22.783186  20.875353  16.640293
Hf  -24.511768  -4.932555  -1.208453
Pr   30.045288   4.874282  22.528283
Zr  -16.277074  13.683636  -1.986664
Xe   12.172268  12.836025 -14.037633
O    34.447391  14.181602   9.110224
Sn  -23.184724   9.517040  -8.411533
Ne    2.210552  20.759534  10.329021
Pb   20.592296 -15.945577 -32.562134
B     2.107595  10.540444  10.530400
N     3.774640 -13.024799 -12.757655
Au   20.170616 -38.541091  -4.668664
W    25.386932  12.900368  26.695565
Nd  -19.977498  10.179661 -31.468307
Se  -17.792543 -34.959010  17.215716
Fe  -17.698155   0.208216   2.317829
Ag  -32.856414   4.891988 -24.965172
Eu   35.639879 -24.414041  10.133532
Zr   19.106885  -7.310978  -8.243767
Tl  -15.928817   6.911614  -1.102723
I    15.395632  34.905921 -11.572730
Li  -18.950699  27.097093  -6.413159
Sn   36.614867   4.812239  15.921877
Ni   -8.998298  12.574427   9.377121
H   -20.903283  -7.302890  36.212803
Rh  -10.200729  21.228601 -30.739768
Po  -42.995100  -9.535465  -2.118626
Mg    2.223381  22.794421  22.693871
Tb    1.407678  24.739879   3.917395
Nd  -19.409399  -7.993099 -24.126197
La    5.871237 -28.169883 -21.533355
P   -25.346205 -28.767161  -7.218283
Ho    0.301996 -17.149556   1.323374
Ne   -9.160213   1.753316  37.502198
Sr   14.790065  21.636848  15.479590
Cu    1.496527   8.214737   3.685281
F     7.606495  19.132626  15.372303
He   -0.168280 -30.766141 -20.957607
Pr  -41.465856 -15.919486   4.968156
Cd  -41.923533   7.181626  13.814766
V   -31.856055  -1.136051   4.018613
Lu   -4.633775  20.990035  14.363840
Te   23.575923  15.464834  -1.478514
Po   19.974485 -16.235533  11.281407
Si   23.124293 -13.603894 -10.431504
In  -21.205307  -9.866700  12.495035
Au   20.906637 -16.895964  -1.472014
Ti  -39.242065  11.251666   5.554156
Tl   17.623753 -33.863810  22.293261
Ti   45.380976  -0.626933   0.454136
La   10.900192 -14.872944  24.588516
C    -0.567845   8.956078   0.559640
Tc   20.259124 -34.829908   5.510452
O    -2.085147  15.156854   5.288436
Ir   31.390064  -5.483082  26.315394
Co   37.979952   2.984044 -11.885854
Rn   39.608990  21.846320  -2.352516
N   -10.804543  11.983821 -10.202494
Pt   31.802057  10.022776 -23.390505
Dy  -13.295042   0.317458  -3.636498
He   -2.340739  43.831015 -11.911622
Pb    4.981267 -18.803729  32.895062
Ar   19.418588 -17.182988  14.396860
Tm   42.116548   8.158839  -7.022964
Ni    9.031348  43.106154  -9.233600
Sc    0.061829  36.906776   7.449438
Pb  -24.569395   9.291726 -36.581489
Ge  -36.711817 -14.437548  12.580392
Ho  -16.552190 -32.528913 -21.019638
Eu  -10.887557  -5.321734  43.488170
Si  -18.143293  22.731141   1.076478
Ru  -24.127161   9.980424 -20.734551
He   31.067425  32.413229  -0.632916
Fe    4.806447  -7.801032  25.541934
Nb  -34.433843 -21.303938  20.934346
Kr   27.595923 -14.564279   0.283039
At   32.088771   8.789006   2.690148
Al   16.214809  -1.758532 -21.513116
Yb   33.921265 -24.909757  -7.845580
Nd    5.896474  37.599567  -1.829494
As   20.374539   2.581818  33.720210
Os   15.622189  -6.671499  10.958954
H    14.228202  12.550201  36.183413
S    15.710946 -34.601358  -6.028726
Xe    2.312743 -38.084798 -17.499463
Sn    1.116926 -19.414908 -20.298664
Gd    6.251052 -14.966658  -9.090765
K     6.534105 -14.188618 -28.872854
At  -11.760994  39.476231  18.298247
As    6.315241 -11.894547 -12.083699
Au   -1.682981  -6.511898   1.684229
Tm   -9.576129 -12.386405 -31.428280
Na    2.502416 -19.023425 -20.216120
Sb    2.605797 -28.234761  29.616147
Pt  -41.562960   6.252347  -0.093182
Mg  -19.068445 -21.524205 -28.491180
Fe   21.632933 -29.335507  15.257048
Mg   35.210905   0.018971 -28.622877
Rb    8.254984  11.611206   1.202034
V   -21.574195  -6.074192  11.059633
Hf   -1.129041 -34.042142  -9.205186
Ag  -13.486863 -13.435852 -13.747175
Rb    5.091190 -35.326993   5.712970
Os   18.701328  28.172189   7.413384
Ce  -34.952018   2.547114 -27.191106
Sr    7.753553  16.706032 -30.276577
K   -25.222083   4.672417  34.546124
Ir   24.688444 -13.586182  -4.034947
Zr   -6.210153 -34.378624   0.805460
C    -5.440472  26.478451  22.184752
Nb   30.538882  -6.812238  13.022906
B    -8.507586 -32.825680 -21.139599
Tc   32.689469   0.677204  -2.553591
V   -11.345914   9.282842  41.093231
Pb   17.447452 -11.112686  34.155013
S    34.161935 -12.645385   4.000021
K    -9.155510  17.404576  31.624953
Pm    6.130702  -3.306474 -38.547381
At  -20.340562  23.151075  30.498940
Cl    2.236219 -24.138662   5.951351
Te  -34.380517  12.292603   8.335299
Ru  -38.750954   2.437376   9.868519
He   18.245587 -35.065451  -7.822571
Ba  -35.597625  18.211781   4.158711
Br    6.685388 -23.534772   3.807658
Er  -26.233767 -36.623114   2.998798
Ge   28.778305  23.055320  16.171691
Xe   25.136997 -10.372951 -32.156379
Ar   30.023732 -24.865612  20.533428
He   11.347990 -25.949890  35.466165
Ba   -6.999622   9.230229 -42.444716
Zn   14.058853  24.825805 -28.667916
Er   -2.178345 -41.075966  -9.498647
Mo   26.309326  24.030586 -25.660769
Re    5.018720  10.766123 -33.358595
Be    3.127306  24.964138  30.127475
Ta   -5.458055 -36.188996   2.690433
Tl    2.784512  -1.824396  29.846403
Rb  -16.507975  17.202337  14.548544
Ba   17.762282 -20.890784 -15.288606
Ru   19.618512   4.898620  30.274338
Ho  -19.234349  -5.893002 -25.766471
Os  -32.101351  18.839842 -14.246383
Sn  -15.026720 -34.417320  10.855367
In   -4.392160   5.806156 -15.217047
W   -28.922377   1.032482  31.733709
Rh  -17.810468  -6.154844 -28.714364
Re  -26.391684  28.992392  -6.728197
F    16.387463  -8.803866  40.100331
Pm   11.040624   8.269955  31.514798
Sm   11.442612 -23.717047  -0.953669
B    -2.313888  31.632338  18.518455
Si   17.181762 -17.117563 -15.204305
Sc    5.692536  19.146530 -19.215668
Ar   -7.205286 -14.150873 -34.193282
Hg  -22.947298  -8.042989  13.580880
V   -38.319316 -15.391690   8.234051
Cl   -3.630285  -3.877956 -45.380308
Sb   22.086310 -17.731372  23.697818
At    7.813210  29.136349  -7.146258
Hg  -12.979678  14.414125  18.665301
La   17.920902 -17.195811  -1.997398
Rb   -6.198363  26.178498  -6.035054
F    12.700120 -11.070714 -41.014484
Rh  -13.029329   0.228176 -23.318665
Yb    3.745119   2.853601   2.448915
Ti   32.723007  13.549888  19.714770
Gd  -21.920391  26.968226  -9.345280
Cl    8.349252 -19.615770 -22.531525
Gd   24.974742  -9.557248 -25.210531
Ga   31.178652 -17.466741 -28.287434
Dy  -35.070886 -27.353218   2.429875
La  -12.506068 -15.710359 -21.890663
Ni   -2.365808  18.798684 -25.590281
Be   29.401605  -3.139015  -9.603950
Ni   -3.459989 -16.638752 -38.477122
O    10.550972  10.767628 -12.152410
I    -0.368692 -38.694099 -23.894433
Ca  -18.507596  -3.428517  -2.154405
At    1.854594 -18.830313  11.436465
N    -1.395344 -33.604106  23.992839
Cu  -26.001940  28.366537   4.202963
S    14.453822  -6.698755  21.841336
W   -35.531536  -6.791436  23.385499
As    9.901758 -16.475485  13.156473
Cr   27.322525  33.773473  -0.007655
Ar    2.006380 -27.073281  25.360195
Cl   30.245108  -7.102223  31.786645
Xe  -32.989061   9.390128 -11.302643
Sm  -19.210566 -30.953244 -26.333956
Yb   30.987386 -16.250989  -7.735070
Ni   27.812032  25.126868  17.281540
Y    42.075109  -3.280616  17.239511
F   -11.236823  -8.470788 -20.690063
Pb   11.358156  25.226632 -17.832362
Be    2.519553 -15.379068  17.817325
Fe   15.348156 -33.573769   2.862284
Au  -12.604814 -12.521719  33.215903
As   39.570469   7.842346   9.641919
Ar   21.907302  11.437056  19.162498
Na  -14.170152  -8.418005 -13.736070
K    25.008572 -29.044026 -18.611148
Ba   -4.602126 -31.874989 -31.255387
K     1.895212  10.279105   5.874744
In   12.245923 -31.671703   6.243065
Be  -38.930261   5.481916  -5.491908
Ti   22.571962 -30.225439   8.450321
Br    1.554971   0.938622  10.832033
Ce    1.442165 -34.780737 -17.402645
Ba  -27.538196 -17.895255  20.439466
Ga   20.008127  27.657218  24.850283
Fe   16.594505  19.607230 -32.090384
H    -8.048486  11.508970 -41.158566
Nd   18.777491  15.161511 -22.355756
Tc    8.677591 -22.548852 -34.868936
F   -20.001075  40.744854  -1.315217
Zr  -11.525804  33.731079  27.128862
Si   16.157239 -14.662209  11.818236
Cr   12.720520   8.956360  10.688909
Be  -37.806309   9.322513 -15.885417
Na    4.425258   8.958359  29.936247
Mg  -10.702949 -33.016093   3.232099
Pt    6.412800 -12.545259  28.716533
As   18.433874  32.790277  -5.712400
Po    0.742164 -21.968466  -8.849993
Co  -12.352328   5.394573  39.414903
K    32.521295  13.295001  12.045827
Sc  -35.047751  21.324717  -4.687887
Sc   15.797960  29.502577 -30.318621
Pb   23.356923  28.844381  19.994982
In   14.838234 -16.915477 -10.254555
Cl  -18.310718  14.361685   6.333905
Mg   -3.762206  13.028850  38.651818
Rb  -18.145358 -32.065277 -24.427813
Er   15.456612  28.463188 -15.925949
La  -20.318886   1.196018 -40.502181
Fe  -13.521898 -32.104628 -27.067824
Nd    8.906933  38.935935 -14.397973
Zn  -28.793069  21.398784 -12.683798
Br   -0.164587  33.597546  22.035773
Eu   39.736936   6.048300   0.808193
Rn   -6.303866 -40.967047 -13.350499
Xe   34.434365  24.558510  -8.083801
Na   -1.174317   8.200205  30.587517
Hf   32.728346 -22.872246  -4.823221
I   -18.608368 -13.949166  28.387107
La    1.704072  16.143865  -5.239131
O    -1.114606 -22.413791 -15.538389
Ar   17.802574  14.744304  -2.679907
Pb  -14.959313   6.765862  -7.305057
Nd   -5.833042  24.271467  26.846650
Cs  -27.409287 -19.550152  13.785035
P   -26.213841  -9.852605 -34.583281
W    40.688170 -19.349530  -1.967354
Rn    0.097508   8.566688  25.636894
Bi    6.321554  13.806354 -36.475784
Fe  -12.188552   6.100433  18.471894
Er  -18.558457   3.971308  -1.039092
Rh   37.938417  -5.378441 -12.819225
Zn  -15.820762  29.603544 -15.306875
C     9.526200 -19.754604  -2.428749
Ge   40.253979 -11.387334 -11.909108
Cu   28.209508  -4.975877   6.440548
S     6.503773  -7.700517  38.579871
Ce   18.014736  20.907797  26.563766
Po  -34.350498  12.451484   5.404706
Cl   26.119355  33.389126  10.742372
Tb   14.480547  24.305197 -20.585260
Hf   30.391496   6.476817  16.473923
Po   22.737729  23.570422 -26.860089
S    26.846125  -5.088260   4.783912
Cr   -9.586652  19.199466 -15.524809
S   -35.014679 -10.352254  26.365243
Fe  -29.305484   4.213825 -32.182936
Cl   22.905480  15.278897 -17.760097
C   -16.848995  -4.539057  -2.514351
Pr  -34.510820 -15.830259   5.239826
Lu  -22.223097 -16.463784  24.109893
Zr  -16.716710  14.635161 -13.208178
Ta   15.169435 -20.096585 -34.843805
Pb  -28.227417  -8.108269 -25.850578
Cu    8.619763  30.597493 -20.327560
Cd   -2.453328  -7.686994 -15.494522
Ca    6.843641   5.613498  25.446013
Hg   -1.950622  17.215601 -36.104960
Zn  -37.666096   3.904033  -9.563060
V    12.491318 -26.610474 -27.945813
Y    18.637936  -1.921548  28.174262
I    13.489258  -9.706268  30.592284
Ta   13.572259  -7.884819  38.387957
Mo   40.269018  -6.114071   1.802488
Os  -13.982471   3.894170  20.675693
F    10.260959  21.702142 -30.270978
Te   38.083301   2.058352 -16.574622
Y    15.040016  33.985778 -19.485677
Sn   23.153464  16.306456 -21.963301
Mn  -13.138646  17.737741  26.654219
Er    6.383279 -22.793126  33.203349
K   -14.231645 -16.918669 -32.602869
Cr    0.505969 -16.548535  24.677514
Ge   -2.747186  15.458539   4.628797
Si    6.607153 -30.836137  -4.921209
Tm   -1.669915  -9.520250 -39.601581
Tb  -18.984770 -25.697234  -4.204837
As  -12.001124   4.996948  27.326964
Os  -19.505946 -32.802426  18.904502
O   -35.151552  16.243942   6.883486
Tm   18.807754 -20.525128 -31.006716
Sr    1.659943  -8.596516  -2.683500
N   -11.721300  20.994109 -37.196359
Pm  -15.781667   7.966450  30.478811
Kr  -29.089532 -13.853245 -11.635176
Pd    0.578848  17.224825  17.451472
Ca   31.033508  -0.929747 -15.550870
Co   36.233627 -19.704762 -13.762673
Lu  -15.213686  10.674912  39.244082
Hf    8.002977 -12.497321  26.551731
Cs   16.144639  24.717315 -21.392840
Cd  -42.345436   7.968683   5.708397
Tb   35.995641 -25.360482  -2.383337
B    21.044058  10.882455  37.595020
Ne   -1.360965  14.613116   8.835862
Bi   25.786427 -35.504981 -11.147074
Br   10.625686 -24.915654  -4.043148
Pt   -4.873069   8.286423   9.215264
H   -18.974775 -31.739636 -12.555217
W    -0.634961  -5.208277   9.426287
W    27.819967  22.260606 -28.456145
Ca   36.349789  -6.394170   5.910514
Se    8.272432  41.125531   9.086256
Na  -21.902206  -5.133798   4.406218
Be   12.853077  14.407517  36.998902
F    19.528632  14.963687  21.884073
Ca   -6.982371  19.846011  10.439489
At   21.549881  -7.776384   7.412980
Cd   23.354670 -34.029265   8.036753
Sb    9.224777  13.211155  -1.790836
Ar   -4.370082 -10.441051  -3.337691
Rb   28.183951 -35.463030   4.166227
Ce    2.832564  -0.147535 -30.522808
Sc  -30.532193  -7.233863 -18.286323
F    -6.634370  22.220331 -27.653575
B    -8.985025  18.388403  10.512510
Pt  -10.284450 -22.121820   1.069437
K     5.591299  43.700347  10.737121
Ba   27.716277  13.849880  -0.296898
O    10.621615 -30.891910 -13.988976
Ru  -19.168231  10.246098  37.836924
F   -16.687555 -13.499663  -5.844904
Sn  -14.489446 -36.326698  -8.186083
F    -7.919001   3.291087 -35.154050
Gd   -8.319588 -23.449219 -29.896470
O    -8.395682 -41.459713  -9.460593
Mn   19.475604   4.610400 -37.222810
Pm   -5.370659 -21.165764  -8.356208
K   -25.793495 -19.703628  23.269991
La  -18.779199  21.254080  -5.108815
F   -28.433782 -23.708022  25.649313
Xe   -2.055141  -4.590956  32.482935
Nb  -16.862906  22.607470  34.692747
Zn   33.962053   5.233920  20.409645
Cs   28.857863 -12.777335   8.416621
Au   41.296045   0.124249 -13.583410
Ag  -41.674260   2.358097 -18.140405
F    14.144723  -7.125254  41.781605
Kr  -35.411008 -14.545974  12.842429
He   21.092237  32.811849  20.374529
P    10.710171 -16.469180 -23.699998
N    11.790936  -6.338763 -16.712682
O    36.803998  -8.293536 -14.407011
Be   26.003025 -21.287490 -25.879139
Cu  -14.777283  -3.055786   5.734822
Li   35.490598   8.381870   8.683126
Dy   20.691674  -8.369710   0.162580
N    16.137263  28.512893 -12.364168
Na   33.187906 -18.677124  18.865366
Pb    6.254626  -7.524189  11.508245
Rb   -5.932786  -5.987421  42.438456
Xe    2.908368  -7.328993  22.707673
Dy   20.638249 -11.418837  17.991065
Te  -28.052809  -1.491947 -22.835571
Hf    9.910530 -30.132185 -17.229477
Po  -13.527283 -16.340737 -27.554919
Te   21.373383 -14.808458  -2.167836
Y    25.208800  -1.826736 -30.545749
Be  -11.357901   7.219371  15.673096
Sb  -11.210809 -33.342599 -26.997170
Sc    1.771705 -29.266367  23.448414
Pm   15.496348  -4.815561  24.031041
Rb  -30.784794 -33.597205   0.974681
Ba    0.740116 -24.271789  27.063031
Cr  -27.963967   7.169146  22.665779
Cr   10.781167  33.736722 -11.234203
Li  -28.604764  12.029900  32.886829
In   23.373672  -4.570249  26.801651
As   13.154032   1.304896 -29.196573
Mg   -1.248740  -4.694632  -5.414077
Ce  -25.091954 -14.169336  32.467212
Xe   -3.461352 -12.010032 -14.406129
Sm  -18.138609  30.581804  12.530161
Bi  -14.813067 -14.523249 -25.944928
Si  -17.392461  16.555007  -2.274545
P    29.501208  -4.042351  24.787927
Nd  -37.773082  11.742134   9.577712
As  -12.513356 -19.247783  24.636388
Po   43.785530  11.988112   4.483945
V    -2.493541  -5.900466   0.517116
Cu   -2.702470   0.615713  27.435371
Po   15.195411  -8.447264  -6.459965
Zn  -36.365521  -3.540647 -10.374886
Sr  -31.318511   0.658666   4.455349
Kr   -6.086716  26.182608  29.144281
Gd    7.986305 -17.313701 -16.703637
Sb   13.805055  -4.528772 -17.130120
Tm  -19.014608   2.860322 -31.987682
Sm   23.025153 -19.154482 -23.300261
Ho  -10.457035 -12.743781  -4.277656
La   -0.782164  19.360429  14.434891
Nd   -2.429199 -12.359723 -31.181668
S   -28.105186  -3.598319  18.745048
Rn  -17.671083  32.020653 -26.754529
Hg    4.618587  28.563151  -8.574731
Po  -20.312230   2.316868  -7.200369
Cd  -26.535044  20.878910 -10.869078
C     5.048403  -9.398479  -2.697660
Cd  -20.767574  17.705316  20.962053
Ar    0.788631   1.131462 -35.896443
Cl   38.580953 -12.645485  15.990055
P     6.420774  -1.203571  -3.742664
C    -7.640683 -35.093706 -21.271178
Rb   31.634912 -15.593397 -18.124761
Nd  -30.421121  13.087300 -26.383034
Eu   33.229465  23.055083 -15.763453
Tm  -31.779744  -8.887112 -15.347905
Zn  -16.171125  15.486581 -17.380242
C    -0.850518   8.774490   2.648432
Mo  -22.864503 -15.223763 -28.472073
Re  -25.495854  14.842984   3.185694
Ho    7.187930  16.526564 -24.120408
P   -21.126030  26.171594 -24.388696
Cu   -2.407412  26.571010 -20.803566
H   -22.852376 -34.320915   1.885153
Ti  -21.970972 -25.580888 -14.858364
Zn  -24.781200  15.191855 -28.763242
Ar  -15.776267 -18.977168   4.155246
Te  -12.057175 -20.008581   1.134070
Yb  -21.614591 -16.028981   1.469204
Ge    0.438548  32.749997   6.413171
Os   17.044121 -22.721800  27.371738
Sc  -18.199421   8.741949  39.765522
Ge   -9.395685  23.359084 -24.243228
He  -10.941774  -9.810804 -19.185051
Nd   31.072294  28.227817  16.631157
Tb   -3.982579 -31.965855   3.762015
Sb   -6.146777  21.539993   5.410300
P    -3.765445  -3.246426 -36.078383
Cr  -18.159605  -4.687023  12.955892
Na   14.132596 -23.603398   8.174938
Sn   17.917655 -12.559185  37.455430
Ne  -26.732237  13.176769  13.001736
Bi  -35.329044   4.453581 -20.234733
Ti   -7.378078  25.692230 -33.245668
Pr   20.993746  11.604577 -23.241271
Bi   -1.123794  11.838911 -10.870535
Xe  -31.230953 -22.486229  -7.139032
Ta   -8.503756 -14.048656  22.059361
Zn  -23.895951   9.170820  -6.215514
Kr  -31.548202 -11.069800 -26.464282
Pr   -2.133109  16.045759  -6.063344
Fe    3.673561   7.018661  -4.979721
Tl   10.306411  11.728928 -22.428086
Dy  -19.425689  21.761173 -16.035572
Zn    1.183358  -4.768921 -15.391032
At    2.812078   5.665380 -17.697470
Sr  -19.019513 -20.617495  24.532330
F    -1.947585  38.481374  16.039862
Gd   35.092815  17.872450  12.056401
W     1.349547   6.500960  26.267223
Rb   33.788282 -11.764040   7.196709
He    3.961014 -23.679110  17.484328
F     7.693766  26.489225  28.198102
I    -8.451821  12.379123  14.297592
H    36.807789   8.520531  24.922131
Fe   32.206118  15.298850 -17.164449
Cd   32.384781  22.805816   4.260376
Be    8.734298 -16.562297  36.752277
Os   29.289400   6.079834 -17.618772
Rh  -17.595858   1.826539  29.023378
Nd    5.554301  -2.889928  -7.037565
V    -5.439523  34.257494  -1.688642
Ni    5.557341 -26.426532   7.598710
Cs   33.730537 -20.082548  22.169283
Ag  -11.898713  25.122858 -35.286981
Pt   20.751242  13.964383  31.285656
Ce    2.405039  36.238279  -0.682173
Tl   16.269199  23.812696  20.038518
Bi    8.200025  15.519564 -17.286134
Yb  -33.947503  -1.668766   2.458716
Te  -22.712365  39.526643   3.090299
Zr    0.186069 -19.598286  -4.660672
Ru   24.902639  -9.582085  34.121648
Rn   18.510055 -32.105225   0.974156
Sb    9.774655  13.333642 -41.420769
Te  -25.581301   7.329780   6.050200
Ag   -9.550525 -36.297824  24.317782
K   -13.655574 -38.587906  13.876997
Rb    8.897279 -29.076739 -23.338216
Tc   11.780647 -31.364299  -0.113579
Co    5.846049  43.010693  11.174285
Cs   -9.481999 -39.164763  -0.638556
Tl   -4.571911 -19.247243 -27.219847
Tc   -5.269373   7.104974  -6.197887
Xe  -28.259095  -4.627114   9.753375
Nb    7.463564  28.071480  -2.257724
Pr   22.381610  -0.645237  35.658820
Cl   -3.125670  36.239596 -11.539698
Rb   10.151189  22.887205   9.928683
Yb    8.082271  19.384564 -20.876403
Te    4.126416  32.655967  16.901703
He   13.768297 -20.863494 -20.951798
Sr  -17.508314 -26.330775 -29.010613
K   -12.986754   4.196866 -34.714762
Ne    1.967038  -0.399762 -22.713992
At   34.938473  23.190153 -11.645677
Mo   -0.027439 -33.830999  20.765680
Rh  -30.089090   6.514783   2.130987
Tb   21.171099 -21.700373 -33.752241
W   -32.269020 -27.673314   6.980196
Hf   -0.941724  15.881689  41.583756
Pm   10.826509  34.309987   5.411170
Tc    3.031667  28.423576  29.755526
Ho   21.350312  -9.405779   8.458458
I    -4.946526   7.767724 -43.074630
Zr  -10.467933 -39.611466   8.694202
H    -4.969174  20.204387  -1.881320
Tb  -11.133316  26.894990  -4.804333
Ba  -37.138885   3.024376  25.567928
As  -14.389991  34.247917  25.501210
Ni    0.071523  37.541565 -10.985100
V   -30.319565  -2.552873   1.679359
Ag    7.120711 -20.763907 -29.169147
Lu  -28.578118  -3.917488  -8.099550
Ca   31.336987   7.087545  13.801048
Ni   -9.396077  -1.685642 -43.473820
Sn  -11.251627   1.172033  10.482710
Os   12.773064 -19.999624  10.899658
H   -14.889205  28.550990  -5.249276
V    20.380267   2.094067   9.568316
Pt   17.132579  30.554340 -10.492640
Ru   -4.622123 -12.358541 -15.815548
Ga   10.940893 -15.165553 -29.028470
Ga   -4.102130 -43.394293   2.646853
Nd    0.644350   7.407479   3.235036
Ag  -20.328228  13.800858  28.677199
Ga    8.897313  10.260884  42.757511
Sm  -15.354926  -7.062540 -28.101461
In   -6.121538  37.323635  -5.435229
Sc   17.256627   2.345391  40.299177
B    17.786247  18.946513 -24.032035
O    -2.338474 -27.667628 -29.271682
W    16.072585  -3.796167  17.833815
Si   12.449213   7.802712  14.346319
Tm  -34.433573  22.410973  11.389706
Dy   25.995873  25.960455 -23.960597
B     5.211898  27.252260   1.483865
Re   -4.098721 -23.460461   7.594293
I    19.662344 -24.698577   7.204120
Ce   30.334023  33.971860  -0.810552
Sc  -31.203390  13.151082  12.059338
Tb   18.207954  -3.487238  -6.011305
Te   -1.423270 -36.427254 -24.000615
Ar    7.961304  -3.828293  31.892956
Sm   19.011490  -8.567241  14.634928
Ta   27.947299 -26.470528  22.433947
W    44.572126   1.993373   3.628633
Fe  -11.206267 -26.336634  31.295588
Nd  -42.868098  11.118529   2.410116
Cu   -7.842702 -12.332552  39.025244
Os   23.773550   7.617075  15.323316
Zn   -3.437548 -27.700921 -35.183612
I    -8.248546  12.315907  42.495400
H    -1.386504   4.060703 -23.707181
Te  -16.765794  11.538694  23.900669
Co   26.442234  14.912415  28.571220
Gd   14.484342   8.472353  12.086011
Rh   -0.209762 -24.881949  -7.769643
Pt   -3.951999 -27.247202 -13.836360
F   -25.827170 -14.739168   3.849344
Ce  -26.365896   4.834802 -10.857093
Au  -34.406676  -0.580202  13.674664
Cs  -11.406677   8.487067  35.867700
Mn   17.269555 -31.685312   4.695987
Cd   -8.790992 -20.486703 -22.333382
Ga    9.940464  24.808971   8.871961
Ne   -6.997518   2.994540  -9.729898
At    9.941679 -37.971477  -4.023847
Cd   -3.756996  14.888820 -36.323853
Sc  -11.092890 -41.294413  -6.152404
Cl    6.706346 -35.619923 -11.554794
Kr  -22.863009  20.221050 -33.454678
S    16.154111 -25.314020  24.877435
Tl  -39.947777   2.862157  18.047004
Mg    6.490253  10.039083 -19.785773
At    4.309902  24.534065  -2.267182
Zn   27.077334  30.296377 -14.844139
Al  -26.692149 -15.123002  24.960190
Fe  -10.818347  -1.633910  18.363743
Kr   21.350952  11.850214 -25.897165
Nd   19.012376  20.866336  20.878634
Xe  -13.323535   3.855101  -2.770577
Cl  -16.577581 -13.432636 -21.724208
Sr    3.779768   2.867074 -37.997688
Hf   15.458317  36.593989  -0.736465
Gd   -6.146937 -14.156967   6.905764
Cr  -35.509762  -3.617574 -10.751097
Ir  -35.269098  -7.084192 -21.480307
Bi   21.826926  14.304578 -12.238524
Pr  -11.173367   4.356085 -41.475008
Nb   17.677687  -4.875854  15.174487
Ru   26.348654   5.026039  19.993715
N     9.747853  -1.078669  13.475807
Li    7.954638 -37.306605  22.570664
Cl   -3.907372  -3.729582  32.620558
Cr  -19.927550 -20.374769 -29.875904
Ge  -26.216398  -9.305680 -23.523412
Au   26.798601  34.235320   8.570090
Al  -18.616096  36.906857 -16.070294
Ga   42.642983  -0.614302 -14.786848
Tb  -38.199933  12.607050 -21.260019
Eu  -14.974967  27.033283  23.947557
Mn   14.548401  -0.610496  36.578648
Sn  -16.575076  -0.116544 -42.396825
F     9.958270  31.927381   9.865061
Pm   21.286652 -17.732384   1.182993
Hg   10.370933  25.931849  32.997124
Ge  -14.935746 -30.885691  28.461207
Os   -9.995013 -40.141445  15.201025
Rn  -24.164398 -12.677879  18.495717
Ne   -2.812817 -27.474566   2.240623
In   23.866841  20.240074  30.210264
W   -29.654341   3.372149 -22.186169
Si   18.876421 -32.871854 -19.399140
Ir   35.508217   6.729509  11.490824
Sc  -17.410099   1.678130 -35.339092
In   21.491986   0.893174 -26.651742
C   -12.646716 -27.676373   5.320940
Cu   -7.056672 -41.366761   0.759804
Cu  -26.858501 -31.061555  -4.948906
Cl  -15.803999 -31.783443   9.956927
Cd   -2.034529 -40.998883 -14.760588
Ge    1.556823   6.954615  29.930835
Hf  -25.596052  20.995510  26.674006
Dy   15.088834 -12.844761  38.388767
Ga   13.388513   8.623668 -40.048731
Ho   16.422718 -12.868916  31.098601
Ni  -15.025633  17.908155 -37.632788
Ca   25.992123 -32.898831  -8.320332
F   -10.394703  24.548621  36.927130
Mn   34.257842  15.437655 -11.553357
Pr   -4.804928 -14.300143 -35.147425
Zn   -0.756274 -41.164056 -18.076796
Si  -21.307669  16.886778  29.797449
Zr  -27.367015  20.993675   5.384145
Rb  -14.329929  20.049765  20.855360
Cd  -28.745114 -28.001562  12.983468
Ta   12.137550  -1.017927  18.415583
Li    3.976413 -33.508849   4.752452
V   -37.321144 -10.385664 -12.391735
Yb   37.274156  11.396382 -20.801206
Se  -27.136247 -29.487801  11.897795
Al    4.170926  19.835263 -25.304993
N    -3.238435  -3.224537  44.716917
Pb    0.245695 -29.731002  27.023884
Kr   -9.314744   6.943681  27.103182
Al  -20.430888  -0.995414   0.294679
Yb   20.385415   5.427441  13.620384
Ne   -9.723431  37.352591  -7.016229
Al  -30.965513   4.174473  -7.081556
Ba   -9.459976 -13.258816 -42.230787
Er   16.336742 -34.518970   9.773089
Cs    8.140601   1.437557  33.862949
He   13.734363  25.794755 -12.705594
Sb   38.331617 -10.831380   6.047910
Cd  -15.041337  16.355826   1.069595
Ge   21.032975   6.482935 -31.339953
Sb   36.737534  15.027283 -16.705697
Ar   13.039207  29.829353 -12.626165
Mn    3.104266  19.417875 -32.428892
Sc   -6.595404 -12.708910 -29.248012
N    -5.879738 -18.296993  30.506868
Li  -22.195481  30.511525 -16.543497
In   -7.480054 -13.825010 -21.770060
Fe   -2.732372   5.907639   1.281445
Gd  -16.325357 -21.349393  -1.013985
V   -13.719376  21.791021  24.338928
Rh   -7.398513  28.233314  -2.468949
Ga  -15.407851  13.588257 -13.826170
O   -25.640203   5.480459   8.077667
Sb   25.354227  -4.345404  37.191686
Cd  -25.969156   7.502141 -31.953080
Lu   -7.059644  26.159327  -5.871489
Lu  -32.516362 -15.876010  -5.284238
Pm    5.615553 -24.541281   3.858599
Tb  -23.505165  27.800596  18.395181
He   31.226935  19.785152 -25.747234
Cu  -29.452121 -27.679118  -2.306979
S    26.738482   3.682374 -32.822458
H   -26.969561  -2.362500 -22.952200
W     2.656305 -41.908051   3.451573
H    -0.901251 -32.895136   8.422776
Fe    5.076209   4.616886 -15.080597
Zr  -13.737790  25.589550 -31.523786
Tm    4.011506  22.978645  -8.034323
Ba  -35.398783 -15.726368  23.628349
Si   15.251193 -16.227953  -9.753651
Lu  -10.242048  23.163091 -21.130772
F   -43.356067  -8.932093   4.245133
Ir   -3.414153 -23.376543 -24.948511
Cs   37.259501 -12.667363   2.615536
In  -23.407452 -12.972846   1.140552
Pm   19.394902  -7.638184 -32.350151
La  -25.833828 -12.686456  10.629948
Ga   -3.156180  23.027242   9.580424
S   -19.163365 -20.234965  27.783956
Ar  -25.029272  -4.905025  13.528806
Pm   22.974778 -19.273785  12.147165
H    13.248802   7.092693   7.161740
Y    -6.666628  -6.398602 -22.041503
Eu   11.031774 -32.752558  12.938114
Au    3.718965 -23.682427  23.658062
Br   -9.131646 -35.986348  24.974544
Sr  -21.773004 -30.641192  -6.798374
Ru   -7.053985 -19.622113 -10.061107
Cu  -22.896673   8.973369 -22.765355
B    -4.747778  27.986992  22.851700
He  -24.757856  23.462029  26.655096
Tm   31.728477  -7.206097  30.976418
B   -16.502797   8.907954  21.543034
Bi   -1.314909 -16.090536  23.966735
Rn  -25.648009   4.928586  21.162119
Po   29.887862  22.083293  -5.786593
Pd   -4.260938  -7.108385 -14.673752
Re  -22.201808  12.026198   8.455164
Ti  -26.308548  18.791086 -20.482385
As  -22.953563  11.966594   3.348527
Ar   -5.884578  29.328142 -17.526700
Sr   14.630370 -15.083070  28.988344
Cs   38.989994  13.740967  13.842395
Cs   16.714262 -13.770671 -22.080258
Zr  -23.497039  21.691936  16.615924
Si   24.343232  -2.937835  36.450133
Ne   35.654129   4.231538  27.058488
Ir  -18.853808  37.361450  -5.812814
At  -16.861763  10.078286 -14.424025
Cl  -30.621040 -28.215763   6.352382
Pt  -40.867350  13.479677   3.935530
C   -26.374825  15.073655  -6.593858
Sm    6.471153 -12.620026 -34.602862
Tm  -15.644988  -7.595787 -24.133920
P    31.405772  12.004495  -1.611420
Ne  -28.296466   6.578651  -1.104493
S   -22.201978   9.871640 -29.393671
Ar   -6.309928   5.059404  20.324421
Ir  -17.065076  -9.441973  21.144339
In   -1.756967  -2.865853 -12.853402
Ce   22.188660 -12.846960 -11.054709
K    11.932057  14.340149 -15.006744
W    28.248989  29.984788  12.428066
At   15.883539 -16.507947 -30.211989
Mg  -31.689689 -11.399597   1.565683
K    20.756182 -11.519987  -9.616129
Sn   -0.212003 -24.513531  27.546495
Yb   32.793789  11.065570  15.257933
In   16.553282  29.282818 -17.334447
Ca   25.442002  23.038558 -21.549578
Po  -34.236138 -20.693072  11.333618
Na   36.744380  19.332470  14.668469
Tb   14.518704   5.872172  31.485969
As   -0.298806   5.600882 -13.002996
Zr  -14.574349  25.179741 -17.588038
Co  -38.956480  13.458808 -16.789026
Er   25.093845 -25.913529  17.221505
Au    8.271118  -0.895093 -22.611649
Ta   20.537433 -22.056658 -31.285807
He    1.518458  -8.376533  31.463772
Sn    1.721158 -38.057088  -2.514635
F    30.266371 -25.213247   6.336550
Ce  -26.749095   3.234871 -29.277159
P   -30.421273 -13.628661  14.712060
Sr  -28.808591   2.946909  -0.204805
Zr   27.881614   9.943398  21.232572
Eu   -2.465716  29.415246  19.329827
Ti   27.102447  -3.759971 -18.619750
Lu  -10.649324  20.062287 -34.338935
Ru   13.153632  23.263501 -29.764504
Y    14.289321  33.985730  -9.130327
Xe  -14.998701  40.506542 -13.988066
Br  -28.864249 -18.515455 -15.967656
Xe  -16.867079 -25.402702   7.764128
Al    3.251900 -34.327724 -10.799341
Nd    3.832608 -37.948151 -12.848300
Kr  -17.525218  -1.424217   3.728368
He   33.755470   3.546955  -4.809152
Sr  -19.674140  -4.713024 -24.709024
Tc   -0.939445 -11.390887 -33.284977
Os   16.040459  -7.464504  -5.772447
Tb   -5.366243 -36.236821   4.021207
Tm   -1.961934  -8.768542  29.632657
Cr  -26.284946  25.385456  21.153153
Ne  -32.760164  26.542734  -3.045502
Br   28.895008  -7.182582  18.127345
Y    10.155922   7.692432   9.303419
Mo   33.683109  23.379313   0.438888
Y    24.266343  -5.463262 -33.009738
Tc  -41.251973  -8.024012   7.723323
Sn  -28.413432 -18.933485 -21.897382
V    -5.172512  24.307513  -4.672670
V   -23.507446  -4.360751  -5.994734
K    -0.442024 -27.613077  11.398399
Nb  -19.471649  10.064692  36.056726
Sc  -42.508185   4.346423 -16.074587
Sr   -4.350949  38.742868 -12.634605
Bi   17.983639  12.325698  37.004319
I     8.107399  -1.846506   4.583993
As   39.669272 -11.096673   0.852622
Er   10.395698 -40.566898   5.529086
V   -18.918823   4.468406  40.285004
In   28.697283 -22.355317  24.061845
Sb   19.447833  10.049024 -23.050372
Fe   -3.000622 -34.258715  29.901648
In  -24.732397   8.173407  17.059842
Xe    8.275671 -22.157312  17.671918
Sc    4.340945  20.023807  25.403224
Cr    2.552421 -31.745950 -25.050631
Pt  -32.260005  -1.375188 -20.375586
Au   10.024312  23.353067   7.583940
Ni   24.316437  21.992017 -26.842357
Au   21.188506  -0.818951  23.849067
Rn  -24.430292  33.246045 -10.271447
Pd   14.555419  18.302134  19.540262
Sn   27.749817  34.156902   4.282046
At  -11.159274 -27.579656 -27.677465
Tm   -8.235912  24.116908 -16.581146
Hf   15.569631  11.816204  22.037881
La   -6.142628 -12.823353  38.092554
Ti  -34.953115  28.662354  -3.857070
Ba   -9.219839  28.841848 -11.192129
H     7.064636  16.948489   4.328703
Sm    5.817073  18.508382   2.782281
Cr   -8.829758  19.704761 -16.720050
Nb   30.676383   8.115478  25.414920
Xe  -36.611015 -13.470531   6.872112
Pt   12.649331   5.135435  -9.884409
Hg  -20.923306 -29.467024  -5.431298
Yb   14.609359   5.670076 -18.696922
He  -16.869855   3.465984 -12.809118
Lu   -7.879782   5.371545 -24.927437
Rb   15.372204  -1.945297  28.745583
Tb  -24.944057 -19.703975   1.964494
Tb   35.051110  14.151876  17.386191
Xe  -34.019728 -17.481787 -18.846529
Br    2.525760 -30.760462  13.283261
H   -34.576499  12.564976 -19.049224
Rh  -20.823709  35.573957  -8.205458
Sc   41.047294   5.026373  18.477474
Mo   -7.412521  -2.158044 -33.950320
Nb  -12.403157  -4.633727  13.797695
Te   33.830038   0.971312 -14.089999
Ta   12.916066 -37.765317 -21.589693
Li   16.182232 -15.349115  13.046440
Be  -10.425033 -18.354499 -24.159149
Pb    5.106931 -12.201189   4.474528
Ne    2.193897   2.099514 -29.852442
Gd   26.753837   9.287101 -14.086465
Pd    4.122849 -29.463503 -16.098657
Bi   18.467509  21.918669  35.376982
Os  -14.175161   6.697379  37.681382
Zr   -9.314910  18.225277  36.383961
O    41.521924   7.248109  -2.055925
Na    9.861455   3.187677 -41.086486
Cr    4.297147  10.171814  37.240869
Kr  -36.541041  15.544379   9.526809
Rn   11.210445 -16.238802 -17.480606
B    33.275448 -16.555707 -26.136068
Pr   14.681472  -0.724320  -2.932323
Co   -3.257706 -21.255548 -14.395125
Na   -5.213013   2.127499  -0.321201
W   -33.106905  -5.510609  19.000849
Pr  -38.519001 -14.340885   9.456471
Mg  -13.243886  17.765744 -16.259516
Cd   -6.594493   1.501763 -26.369133
B    -5.699444   9.925885 -19.426618
Zn   24.554161   9.650478  -0.934693
Nd  -42.211160   0.280324  -7.718124
Ce   18.731803  12.014032  10.891191
Nd   -6.342681  20.281549  23.116734
S     3.825066  31.745122 -24.281953
Co   -6.806192 -43.401075 -10.417271
Sn  -26.771949  14.436376 -29.321900
Cr  -21.794082 -16.971550  29.318995
Fe   30.674369  -3.286796   2.891362
Cd   31.974755  25.541841 -16.124647
Tl  -18.068692 -28.093425 -19.798961
Si  -16.954504  35.252029   0.834093
Lu    0.487586  24.174963 -12.136874
Fe    0.943712 -29.009832 -29.045428
Sr  -39.555947  17.190464   6.196748
Sb   -7.043763  -6.479660  29.389178
Zr    2.940913  -6.917800 -32.184043
La   -5.650447  -0.448684  -3.229453
P     8.512241   7.785817  35.901493
Hg  -22.352061  -1.657947 -28.910758
At   25.905673  21.065838  -7.717947
Po   -8.005114  -0.243818  -4.636502
Pt   27.296317 -29.849804 -16.918339
Y    10.639220 -34.152417 -12.706232
S    -5.532406  31.934781  -1.393171
Sr  -34.860758 -20.167732  18.313706
Mo  -36.947194 -22.848235  -9.206387
Nd   -0.964930  25.155592  32.247770
Pm    7.221276  10.819418  29.878057
Te    1.054921 -20.398440 -34.306383
Ca    7.396812  22.186214 -21.277861
Mn   14.496480  12.073832   6.679025
Ir  -16.677364 -11.430958  -8.581969
F     7.483439   6.971516   0.506668
K     6.592752  21.432998  15.157360
Ho  -23.223475  -2.733300   2.048026
Os    7.112425   7.906484  -3.124885
B   -19.632659 -14.184538  25.864762
Rn   11.600612 -18.826048  35.429218
Te    1.516484  17.608409 -23.940881
Ce    6.041596 -32.695883  -5.883120
Tm   27.827997 -26.742110  -5.716310
In   -6.221899  -1.043115  35.034698
Cl   14.147802 -27.720633 -12.617876
Sc  -31.671992 -21.402935  18.716556
Os  -40.150590 -18.375673   0.635995
H     2.481103 -27.436455  -6.341313
S     5.161536  21.952202  -8.512753
Br  -13.967596  15.506571   9.322882
Ta  -10.219837  12.289914  25.183083
Te    4.232701  41.007962   0.211968
Pm   26.962709 -19.123021   2.577025
Kr   29.968422 -14.645628  -7.365001
Ir   11.490229  -3.777829  29.542623
Ce   -0.833228   8.822303  19.285646
Pd   -2.595044 -34.430841 -17.777666
Si   26.990202  23.456754   0.895318
Si   16.635911  10.525766  -2.175778
Ni   38.007032  15.356622 -17.521620
Sc   -6.301283  -0.152547  30.942808
Li   11.841036   8.206910 -20.984535
Si   11.754404   0.488194   8.459590
Si    8.457708 -35.777519 -18.766260
Gd    3.408974 -16.986756  15.255120
Dy  -39.143924  -3.925364 -20.715610
Ni   29.550226 -21.715760  12.197702
Ce  -21.836803 -34.210996  -4.714301
Sr   20.556668  12.804077 -27.160501
Rb   31.576271  -2.007069  -8.580421
Pr  -14.391422  33.302099   2.261539
Mg  -14.580376 -36.741911  -2.786545
Pm    1.668739 -24.290010 -27.945336
Pr   28.774524 -25.035794   4.947104
Ca  -34.703035   0.645342   1.300173
B     6.941514 -38.513710  -3.715275
Mg   19.490432  -6.759045  37.409887
C   -32.489342  14.919148  17.382057
Y     6.261846  26.935203 -13.773246
Li  -18.759846  -4.526298 -20.878675
F    12.543275  -0.298189   1.810312
Li   -3.394880   3.315502  -2.768845
O    33.076929 -28.319539  -4.714087
Au  -33.602722   8.049722 -15.368379
Rn   34.284464  20.767103  11.170615
Tm   28.924839  11.624280  -7.677046
Nb   -2.500242  28.207698  16.632992
Y    -3.843817 -11.425876  26.589680
Os  -19.811403  37.786192  12.578511
Co   11.979069  -9.310518 -38.940870
Li   -9.368885  39.735737  -6.037325
Al    1.259995  -2.647585  20.902614
F    -9.425380  32.257881  16.235054
Zn  -10.224195 -13.070223  35.840144
Mn  -32.744295 -26.698519 -10.756201
Li   10.875520  -1.927701  14.319926
Kr   15.325634   6.132655 -36.763857
Tm    2.329067 -34.002406  -8.573691
Y   -19.113295  20.137762 -17.753530
Cu   -7.477196  14.172877  -3.678498
Cu   14.746696 -33.234609  -7.574795
Zr   30.379329  20.055351  25.570266
Ba   36.743797   4.131017  18.133180
Tc    7.555158 -39.838251  -4.032532
In   24.121995   5.324120 -28.809916
Rb   25.284232  -8.947186 -23.022467
Hg   -7.686535 -36.927695   0.394009
Lu  -15.635099  33.729936  10.330057
Cd  -12.451526  21.924588 -11.040486
Lu   40.615857  10.525234  13.385423
B    -2.407347  10.829512  -7.219425
Ru   12.191749   9.376513  -7.637653
Bi  -29.955990   3.108492 -26.292326
Po   -9.935844 -17.742449  33.101766
Ta   -2.398992   3.751746  -3.049167
Ar   18.884508 -21.441040   5.758834
At   -5.453371 -16.764086 -13.022457
Ba   -6.191696 -15.030380 -31.049280
Hg   11.123895  -5.405054  16.286886
Zr  -16.456462  34.431386   1.095030
Lu  -36.534200   8.775338 -13.945312
Ba   -0.419251  26.587059 -22.151385
Mn  -14.971411  42.523546   7.316168
Er   10.429632  31.394945  -3.617921
Re    6.062824  21.983103 -14.483074
Rh   -7.935812  23.916945   4.720563
Rn   -3.515720   2.252191 -33.065242
Sc  -43.516860 -12.194727  -5.162553
Mn   20.891654   4.487700  14.431513
Li   34.438396  17.012385 -23.873847
Ag   20.494938   0.855215 -11.473149
Nb   17.032801 -15.860459 -14.259793
Os  -10.063253   3.334804 -33.363424
Ho    9.320599  24.875906 -22.701254
Hf  -10.274049  -9.228112  23.233620
Ne   33.848552 -16.100581  15.142896
Mo   -3.662314 -24.287908  26.491577
Se   -1.759588 -21.258340  -8.929319
He   33.160446  -5.905674 -16.353961
Tc  -16.545981 -16.158227  38.814758
Ta  -29.388300  -5.022200  12.581660
Ru   24.755331 -20.470254   8.495814
F    17.705708  14.118506  -6.827992
Hf    0.094734  32.410172  -8.350071
Ba  -27.970248  -7.768428  31.451706
Mn   -2.045765 -30.819680   7.827368
Si  -21.700004 -17.799193 -18.397943
Yb   -2.353313  19.633737  30.466735
Li   17.767963 -16.888418 -17.284434
Ar   22.728313  15.244106  13.361471
Ne   10.203336  -0.607929  -6.237230
La   16.655201  12.544059  31.599926
Mo   35.493822  -4.814985 -13.273595
Cs   11.364739 -38.850166  20.091161
Tl    5.062280   5.318216 -26.843620
K    39.912113  -0.888346  11.067914
Mg   -8.187766 -17.706965  18.171439
Se   12.677689  13.881617 -30.019440
Ir  -13.953372  17.180682  17.149065
Pr   22.760502  27.113467   3.925630
Mo  -16.106766   8.989389 -30.064630
Mg   37.959747   3.271703  -6.792973
Te    7.830379  33.981097 -14.642299
Si  -14.264699  28.904614  16.917094
Fe   13.749328  33.090576  10.834603
Ti  -12.574118  -8.022824 -27.699727
Si   10.414149  37.630580 -19.688058
Mg  -24.185179  11.306818 -30.852412
Hg  -25.743346 -17.434978 -32.666417
Se  -12.835154 -19.743082  37.030349
Ta  -25.384374  33.790997 -14.123479
Zr  -37.858133   5.912731 -12.919679
As    5.550321 -12.483418  24.306077
Ni   22.219282 -14.192693 -20.926154
Nb   14.248197 -29.621678 -13.568611
Kr    0.063964 -14.711531 -24.806446
Y    44.854988  -8.062799   1.178846
C     4.978070  29.035168   6.033466
Ni   16.721802  -3.113006  30.249474
Ag  -29.861078   5.694117 -23.025230
H    21.447227  12.640876  -3.201116
Rb   19.195284  32.729978  17.788544
Fe   24.563037 -25.426479   4.940468
Ir    2.408318   0.286922 -25.388187
Pm  -13.936411  28.094607   1.112980
Ne   20.031779 -25.085136  -8.574842
I   -20.386708 -17.501703 -17.859742
N   -13.052235  13.584294 -13.003171
Sr  -20.206696  -2.116036  16.559007
Yb   -0.587779 -38.842483   8.148593
Yb   33.902500 -12.937620  19.413149
Na    4.243117 -15.558975   6.833552
Ga   26.302973   6.599720  32.886606
Tm  -35.506031  17.053190 -18.318778
Xe   12.000885 -42.090427  -3.403193
Na    6.093580   3.104128  37.534359
N   -21.882805  28.855033   4.843552
Pr  -10.104398 -13.629334 -19.072122
Yb   10.232771  13.970101  11.823793
Ni    7.362447  -7.093517 -37.582750
Au  -19.465735 -10.726464 -33.488750
Yb    5.856243 -12.295049  -7.838840
Po   -0.515355 -23.298973  14.343429
Xe  -27.378137 -31.548867 -14.983147
Ta    5.738500 -11.799489  36.765569
Al  -21.103797  -7.838344 -14.091906
I     5.976706  26.134653 -13.381092
Er    7.145810  20.964958  34.950470
Hf   -6.017948   8.968992 -20.756274
Sn   13.496546   3.960735  25.153779
Er  -26.983173  12.374750  -7.605233
Ni   42.602090  -2.164129  -1.873369
He  -11.405035  10.564618  39.745607
Tm  -12.952917   5.974743  20.737513
Tb    5.021176 -26.061860  11.760794
Pb  -19.510076  24.706773  21.561014
Hg  -16.620344  19.255342 -22.792296
Be   43.260892   1.811721  12.192878
Ca  -17.664894 -33.358429  22.134845
Ru   42.628355   6.961181  -9.480577
F   -25.046597 -30.684344 -16.852152
S     8.791650  -8.523977 -18.290970
Ag    0.692998  28.394699  -8.716169
Si   -0.319175 -34.741019 -22.681100
Nd   14.059326   0.586857  13.620790
K    22.538571   8.388045  20.048014
Cu   29.187093  18.955924  17.039213
Ir   13.520539  21.249547 -28.892559
Ir    4.479227 -23.588748 -25.116528
Al   10.045800  11.639714   8.640933
As   -1.566349  26.644119  21.828488
Pb   -2.436109 -44.949026  -7.041454
Be   32.890246 -23.058361  20.734522
Mn  -21.107926   6.982145 -39.267187
Cr    8.692026  21.860762 -26.780169
Br   11.253582  43.316434   7.938650
Er    2.617249 -40.954519  -1.002443
Dy  -12.232912  30.720799  15.441538
Cl   23.023415 -30.077631  -6.059561
Cl    0.573604 -26.558147   8.731370
Ta  -37.682446  11.658670  15.594358
Ar  -27.312077  10.061206   8.218893
Yb   -5.040209  -7.651729  -0.280693
Mg    6.082686  -5.682293  27.781706
Cu   30.097404  -3.043570  30.917575
Kr   10.192967   8.032826   1.206256
Pt  -34.410367   1.971210 -17.435198
Al    7.260285  -2.237029  25.217003
Si  -38.193552  -2.426406  23.868697
Fe  -39.771184   4.562600   9.359004
Pd  -27.054149  21.748143  -5.483432
Ar   24.625171   6.691611  27.524482
I     4.512426 -19.738426  -7.633789
Ru   19.139760 -39.510734   2.507576
Cr   15.295535  -5.802923 -28.222425
Cu   -1.636159 -39.787978 -13.670530
Ni   16.866507 -13.937449  -0.994744
B   -11.793074 -23.730320  14.990668
Rb  -22.393975  10.391734  21.216648
Er  -35.841305  11.853493  17.841786
Co    2.318854 -15.830018  41.575298
At  -23.643805  17.779584 -17.351643
Ar    9.284577 -43.043618   4.974250
Rb   33.928629  15.828427  16.492132
Ag    3.041282 -29.765851 -20.451074
Sn   34.353075 -18.872458 -20.084118
Yb   -3.419669 -30.929761 -29.008690
F   -15.020817  34.190348 -20.873420
Ar   21.595005  -0.288039  22.200709
H   -34.704546   0.473573  10.788330
Kr  -27.359065 -14.169129  11.745043
Zn  -17.084021 -10.342401 -23.204832
Ir    4.019644  -1.421750 -10.945673
Br  -11.667509 -13.815420 -36.366700
Tl  -23.905383   6.328245   5.393014
Be    1.867682 -13.766402 -19.509512
Sc  -15.060244  22.760059 -14.632939
In   29.902688 -14.806237  -3.112578
Au   26.601543 -23.648537   6.612459
Hg   -4.896559  10.036183  -3.321512
Xe    3.103709  -6.549124  10.468007
Fe  -22.883925  -5.340920  13.854941
At  -14.638815  35.196086 -23.155407
Pr  -19.546875  15.083814  12.848875
C    -3.730997  11.432971  19.605052
Ba   -9.656634  13.485431 -11.366043
Co    7.107850  -2.698421  -8.403302
Tl  -11.722112 -30.664866  25.130298
F    13.256612 -37.337104  22.510102
I   -25.187268  17.526146  -0.321839
Be   15.161605  14.643171  14.839698
Te  -17.882081  14.842987  -7.054769
Tb  -13.346269 -35.190127 -23.873449
Gd   -7.776421 -20.462656   9.499422
Kr  -27.223317 -20.089821  27.138850
Se    8.017591  39.604950  -3.121560
Lu  -16.224951  40.957234   5.433966
Ir   35.311961 -18.436421 -19.129344
Se   26.465255 -15.576225   6.629029
Ga    2.578804  -2.659016 -34.055683
Tl   36.653309  -3.074249  15.061557
K   -11.256371  19.897215   0.444533
Xe   -9.871595  -2.806674 -44.524429
B    36.043507  -5.043054   4.842425
Li  -11.648728 -16.305204 -35.876784
I    11.153537  27.898627 -17.961252
Ce    9.636078 -19.161020 -31.779307
Tc  -13.475737  35.298416  -2.035432
Ne    2.628969  20.402823  11.231533
O   -20.195270 -15.241419 -18.482666
Eu    7.285803 -34.570688  -7.103097
Sc    1.557566 -34.069982  -2.515236
Mg    9.591464  11.189751  13.840622
C     6.711285  -0.923775  22.046826
Ho  -12.684462  30.156555 -12.243780
Ru   19.139568  -3.830102  32.931740
Sn  -17.411941  24.775370  -9.562153
Hf    3.423870 -23.787261 -18.295157
Rh    2.167728   9.318005  28.025985
Nd    9.179863 -34.594327  -2.757430
Ag   15.772603  21.485819   6.734410
Hf  -40.360613   0.776951 -16.923207
C     2.512179  16.681581  35.821206
Ho  -28.923443  34.001745   1.114704
Sr  -21.242766  -2.426778 -18.215595
B   -12.764730  38.095390   6.776724
As    3.876788  -4.969747 -33.093515
K     7.550563  17.813703 -33.338905
Pm    9.301832 -32.061943 -18.752295
Pb  -27.076568  10.754153 -20.302624
F    14.838466  12.875765  29.667941
Pt   -9.818626  19.265402  35.545188
Pt   -7.342516   0.896678 -45.101303
Nb   -3.169599 -35.765935 -10.669179
V    39.919784   3.198497  -5.777642
Te  -17.540922 -29.981439  -1.197358
Pt   27.274112 -17.140869  21.531837
W   -29.807538   1.508295 -28.429917
Hf  -27.235038   9.318921   2.436756
Rh   -8.910475 -25.518455  -0.214144
Sb  -39.223851  -9.529949   3.024329
Ge  -23.709035 -26.435996  22.507073
Br    4.884357   3.063127  11.479982
Li  -12.940530 -28.706253  18.835569
Cl  -27.305613  13.732930 -29.634770
Ce  -25.166980   8.618960 -34.397178
Yb    1.418307  21.953306  27.925135
Mn  -16.480175  24.588477  27.578420
Nd    6.380855 -29.574395 -18.824187
Rb    4.095792   7.443046  11.513743
Al  -17.133234 -23.840659   1.549777
Mo  -15.443752   6.561732  -4.819002
Pr   21.170131 -21.468775  -9.605065
Nb  -31.832473   3.686913 -24.463674
Pr   19.057781 -17.518141  30.317947
Sc  -12.221428  12.531178  -9.008415
Tc    9.133135  11.178791 -38.651203
Xe    7.500360 -16.815376  15.917317
H    -9.403679 -27.528647  31.169242
Mo    6.951181  41.078238   9.574937
Cu  -11.558598   1.087909  30.562708
Rn    0.955104 -12.318887  16.084888
I     5.072164  29.902957  15.668774
W    -3.703780  32.242055  22.066990
Co   14.903495  15.864199  18.585484
Yb  -32.683805  -9.098074  27.536047
Co   18.637224   3.499240 -17.061391
Er  -17.924397  38.204531  -7.540591
Cr    6.929140  25.361537  27.282770
Gd   15.809091 -18.715120   6.917613
V   -15.424475  10.270292  19.828472
Au   -3.995405  38.508390  19.028297
Lu  -17.959309  29.092776  -3.676016
Pm  -20.181744  -8.921805  22.266151
Ru   -9.005029  23.039110 -34.985640
Se   -5.281384  21.871224 -22.843031
Bi   37.507762  -6.224598  -3.658864
Cs  -39.347137 -14.676636  17.800741
Nd   39.535075  -2.187605 -13.571296
Pb  -27.610136 -10.062195 -23.793452
H   -11.802694  17.524613  26.585888
Tm  -24.931864   6.666017  -0.784429
Ge    5.148843  -3.322382  32.648739
P   -18.427461  29.361657 -28.582128
He  -28.586273 -24.134583 -11.238384
Pm  -17.045943  38.175461  -8.880413
Ba  -20.469416  34.329586  -8.315972
Fe    5.031707   8.804461  -7.841993
He   25.793701  24.400045  -9.348331
S     6.653304 -30.157616   6.226431
La   23.745784 -22.568333  -1.179866
Ho   17.109877  35.074437  -3.806245
Ar   -9.085921   3.161125  22.641495
C   -15.572548 -12.828437  17.224312
Rb  -17.434186 -22.469790 -22.004624
Rb  -29.874900 -25.546130   7.727136
Al   25.795366  35.037180   8.405686
Nb  -26.268971 -33.498784   0.665601
Ag   15.157624  14.112355 -32.083353
As  -31.835591   9.156587 -20.417161
Pr   -2.639490   8.234838  42.824644
Mo   -7.351418  -1.849810 -13.514261
Pm    6.353368 -15.827002  32.701736
Cs  -30.209157 -15.020102 -26.010815
Pm   38.372883   4.748714   6.284610
P   -34.024593  21.164789  12.004412
Rh    9.987076 -32.534460  13.583524
Cs   17.269823  35.448329  13.307632
H   -18.195825 -20.695193 -36.177675
Ne   18.882606 -33.181564 -10.863518
Sc    9.248422  23.909411 -30.477233
Tc   -5.711004 -37.331499   0.618285
Cs    7.390268  -5.781964  16.673411
Nb  -12.913332  12.805453 -14.493474
Kr   10.236920 -38.925675  -2.164833
Zr  -17.967655 -32.283201  -4.872011
Cd    8.711749   5.641238 -18.786964
Nb   -3.897691  23.507394 -34.093235
Fe   23.851509 -19.489477  19.122039
Sr  -16.539306  27.997101  14.497070
F   -26.017759  23.275471  24.846334
Ru   13.057189  -4.236574 -28.682686
Ba  -15.200430  -5.016093  -5.182205
Yb   10.946323  19.425654 -26.719821
V   -40.892955  -2.673738  -5.569348
Cd   -2.193608  -8.095879  11.352693
Hg    9.696707 -33.445449 -25.862235
C   -20.080217 -19.884458  -5.904669
Ar    8.774782 -11.565271  42.114514
Hf   -5.828905  34.983698  11.590110
Pr   -8.386130 -31.813832 -16.867355
Sc   23.522043  17.695432   5.562398
Nb  -18.047853  -5.592029   8.859490
Sc    2.115612  -6.822986  24.715872
Se   -2.071293   7.089271 -43.043159
Te   -9.996704   2.508933  17.682744
Se  -10.271784   2.367380 -34.646182
Tl  -39.753259  -0.476088 -16.763623
Mg  -24.485153 -16.873386  21.169723
Sc  -37.459498  16.718079   3.641274
V    -2.615248 -19.902461  10.430429
Tb   19.417921 -17.660633   3.938299
Be    9.759597   3.232080  33.236891
Ta    1.280164 -13.964198  26.453601
B    -6.087259  -3.167957   5.842277
Po  -31.884387  -6.860549 -28.928011
Te    3.530087  23.696104 -20.725869
Cs  -43.917520  -7.156718  -7.373761
Cs   -5.424788  27.313756   0.644140
Nd  -41.621895   2.061697   0.184174
Sc  -13.903987 -25.567566   3.515936
Kr  -26.083141 -18.043734  17.799398
Pd   37.496960   4.379215  16.550764
Zn  -15.626116  36.238624  17.760038
Tm    5.197532   6.030792  -9.408222
Ne   -5.300337 -11.828607  22.970964
H   -11.701884 -30.893820  29.577622
Al    3.833507  23.896706 -14.790940
Gd  -22.498028 -16.328185   4.809511
Ta   -9.524183  -2.016051  -8.959920
Mg   26.916596 -30.413593 -19.862935
Tm    3.033257   7.234705  23.877319
Ce   38.216329  -2.427337 -10.467291
Dy  -42.107001   7.796046   3.372596
B    22.104419 -22.693353 -11.867584
Se   37.049368  -8.297935 -18.749079
Lu   12.389171  -0.299059  16.932579
Cl  -40.523813  -7.526950   8.649451
B    10.242673  32.033305 -13.484825
Er   17.449179  41.330843   7.515109
Y    -6.724361  -4.360712 -37.240230
Re  -23.331036  -7.041590 -35.737569
Si  -15.739098 -10.766768  -9.842819
Ti  -27.538367 -20.788099 -28.906679
Al   18.206900  35.119029  -5.297661
Li    5.593851  11.668081  11.042771
Ba  -17.546633  -4.112292  -5.949196
I    26.948604  15.920333  -9.954814
Po  -24.952963  18.597530 -28.475651
Na  -22.697679  28.812911  -1.086112
Se  -18.328187  -2.313089  -3.741598
Cu  -44.031585   4.649201 -10.174210
Po   20.611919 -13.843143  32.508507
At   -3.336020 -19.985436 -39.700669
Te  -21.708609   7.491020 -13.634715
Cu    2.605758 -24.944641 -14.159555
Mn   13.967239  29.549656  -0.265007
Lu   20.910010  23.846373  -1.240926
Al  -19.268788  18.062918  19.129336
V     3.812512  26.720334  16.862397
S    29.251629  -7.517546   2.653541
In   14.955506  31.614165 -23.848332
He  -12.856355 -18.595931  26.072569
Eu    7.474386 -10.580319  22.671797
Se   33.938277 -10.288732  21.863861
Ru   -7.383878 -31.329491  15.266059
Ta    0.874870 -12.683515 -33.040309
Ca   13.857290  20.839496  22.274661
Be   -9.545365  17.884363  26.208798
Ba   26.552697  26.511411 -11.441074
Ag   34.301810  -4.901391 -25.749045
Sb   23.336697  27.289435  26.787101
Gd  -34.879305   3.216003 -21.152369
La    2.141704  10.277400  16.257625
Tl   -4.559500  -1.639238 -42.409318
Ar   21.729558   0.762253 -27.877549
Au   25.956814 -11.961070 -11.063711
H    22.336677  16.196619  35.465037
Tm   16.791165 -40.344262 -10.865062
Sm    6.526740   0.716990 -13.256365
Tc   11.769818 -13.624876 -24.114372
Sb   31.548919  -3.925932  12.252635
Co   -4.293424  -2.040403  16.621654
F    11.051770 -17.227509   6.538797
Gd  -12.403578   5.953551 -25.064577
Os  -13.903486 -26.891986  31.692645
Tc  -16.064714   9.495073  14.805235
Ge   28.636599 -13.976314  30.149120
Sb  -13.469823 -15.978236  20.874561
Er   11.684111 -41.282974  -9.379623
Kr    2.948527  35.930606  13.047886
Au    4.264153   0.417216  -8.312872
C    -3.197073 -19.699929  35.213138
In   28.139316  32.637892   9.997946
Yb   -8.155177  18.543340  20.392681
Ho    4.662443   2.044651   1.784344
Al    4.751430  35.267526  -0.895451
Ir  -17.688013 -19.662211  17.932376
Pt  -26.405314  10.366637 -27.939173
Cl  -25.740568  12.203057  -7.918288
V    29.960211  31.684558  -7.177198
Zr   17.902268  19.748058  20.297521
Zn   26.050280  17.822558  25.245882
Mo   17.069541 -42.261228  -1.147132
Hg    7.462017  -9.203050  15.190534
Cd  -22.092908 -10.150113 -24.108082
S   -29.238565  22.746329 -14.095382
Hf  -14.383882   3.838219 -19.185193
H    30.992805  -5.802837  13.886810
Te  -35.954446  10.997131 -11.632005
V   -10.713029  30.993969 -23.107923
Ho   21.900250 -27.883045  18.007831
Eu   -3.656062  -5.174459  17.255916
Mn    4.488610  -1.120025  27.335662
Sc    4.966634  13.036196 -24.956123
Al   -5.452702  22.943770 -25.961910
Ir    9.974544   6.743816  30.679448
V    15.388260  37.534928 -13.648938
W    17.068769 -17.537636  18.543368
Y    12.832922  25.624879 -27.690939
Te  -17.797476  -4.107621  31.237346
Ni  -11.084153   2.912458 -14.094803
Li  -16.090415 -20.167321  31.000699
Ni   28.399791  22.320606 -26.017199
Rn   33.109685  13.358283  -8.888184
Au  -21.486429   3.830772   9.798850
Ar  -14.387772 -16.011533  25.579269
Sm   22.759519 -26.450979  26.357054
Cl    5.528285  26.380633  25.742086
Tb   28.723784 -16.714408  30.828597
Pm   20.498429  34.088094  -4.840835
Tl   21.296045  34.921132 -12.964968
B     4.633967 -28.736466  -4.897076
He   -6.177505 -14.715654  15.491194
Ta   19.107250  13.340010 -19.007984
Be  -11.481755  -9.812636 -26.966504
Eu  -32.395389 -11.444405  27.032344
Cr  -23.874094 -10.165398  -8.426556
Hf   11.686007   2.396800 -33.645842
Lu  -26.357964  16.560606  16.057077
Co   39.665899  12.229903   5.235802
N    23.771369  19.367545  -2.569210
I    34.996463 -12.412389   9.378841
Tl   -3.204287 -23.392262   4.368374
Nb   22.377657 -13.481197  -7.730419
Gd   -1.344539 -26.415120 -27.539882
Au    1.404855  37.564859 -16.430169
Ar  -17.076074   0.593890  36.825582
Lu  -25.448551 -16.443692 -31.490815
Mo   -8.729096 -27.844516 -30.311760
Dy   -5.105688 -27.996772  34.115284
Ag   33.720609  -6.266948   4.377832
Ne  -34.495711 -18.821181  -8.680004
Nd    9.725387  17.157049  38.600291
Mo  -13.860450  32.890373  -8.047235
Ga    7.294502  28.751137 -33.238691
Co   20.483294  29.212119  -9.830044
In  -30.176552  -0.082423 -21.022282
Ta    1.289740  10.748331 -44.399363
Ti   -6.404435  11.285363   8.454980
Tl   -2.154575 -33.696021   0.388091
Bi   21.577817  30.595472  15.299234
Ho  -39.028359 -10.717522  12.939195
Ce  -11.413895  44.164978  -2.162264
Ru   21.492397 -15.834370  -7.775012
Si   40.393702  -9.797265  -1.165807
Rh  -23.180396  12.641281  20.220079
In  -28.483123 -17.957695   0.515346
Lu  -11.518757  -4.813552 -33.325879
Au  -17.771488  34.378481   5.670273
Cd    3.573344  25.958992  25.910472
Au   -9.191509   6.474743 -18.094225
Pr    1.745116  18.061983  14.222784
Ba   13.456732  -8.016343  26.158958
Os    5.354286 -30.358265  -4.675396
Rh   -2.930045  24.379271  27.262571
Au  -33.160794 -24.987466  -7.784962
Sm   -7.157733 -11.784718 -31.806675
Te   37.582689   2.906429  12.774130
C    -2.653233   0.706578  -0.430521
Ti  -19.551088  20.858711   2.790653
La   -1.858219  -4.071508  26.020714
Cl  -18.086538  21.087065  21.019998
I    20.544333   4.060129 -14.527850
O    15.314644   2.760752 -15.288316
Ca   -7.153723  -2.753990  -4.926945
Ge  -12.677976  25.507882  10.851657
Er  -23.427147  16.854422   0.493651
Ga   -9.736406  26.761559 -17.920429
N    21.189945 -38.257999  -9.912178
Zn  -27.163760   8.063432  -6.443612
Rb   37.334860  -3.612504   1.701093
Na  -35.272896 -11.769797  -6.897622
Yb    4.080740  24.418654  -3.032073
Fe   23.797856 -27.653300  19.894451
Ag   24.114267 -14.163842  16.417904
Br    0.040790 -14.436684 -17.724329
Mn   21.597503  -3.351200  39.941229
Sn  -26.874369   7.179795 -10.888017
Mn   29.558518 -25.545401  12.844135
Al   30.731107 -28.050947   8.331683
In   35.854572 -16.472926  -1.571685
Te  -23.474003 -21.765407  -8.557882
C    41.649363   4.494920 -10.693115
Al   28.287279  11.950968   2.262101
Ni  -14.500343  14.937966  -8.931599
Ge  -42.529272  13.224117  -4.022052
Sn  -37.642103  10.108602   9.635257
Ru  -28.193846 -10.469593  22.593691
Br  -36.943256   5.572372  21.898455
Cu   -6.811129  -9.411267  41.004482
F   -11.934205  -7.936817  18.147000
Gd  -31.242265 -12.643498  26.354358
P     4.458745  -7.881910  22.979156
Al    0.280954 -30.295779  -5.209654
W    -7.687008  26.939494  -7.548349
O   -30.467176  -7.017916  20.041185
Tm   17.447763 -20.783081  -2.432319
Ta   -8.136209  39.989108 -16.183160
Pt  -44.176494  -5.051888  -0.091894
Rh  -12.074153  31.552015 -17.063212
Tm  -23.330658  20.924400  -7.519756
Re   -6.045019  26.944191  22.471266
Po  -12.778679   7.301984 -34.239683
Ti   35.953836  23.951762   0.581321
Ta    2.130959 -10.952063  32.867606
At   12.915134  14.871481   7.875635
Pr  -12.740611  21.948805  13.192250
Rn   13.360712  -0.541594  15.834948
Te   -6.819258 -20.372665 -24.238084
Ti   39.575880  20.412777   2.256312
Xe   29.714116  17.739058 -20.157013
La   -1.190416  19.522103  -3.867157
Cl   18.702308 -16.785471 -12.675870
Si   -7.842848  14.578707   7.518801
As  -10.264291  21.660587 -26.584663
Ar  -14.477399 -42.729358   6.495483
Pr    3.831647  -5.535700   2.312668
F   -12.510042 -34.600078  23.624355
La  -20.466824  20.500320  18.339303
Re   10.620494  22.200731 -32.871926
Na   13.609898  15.055863  20.150490
Re    8.231614  37.496346  10.552768
Na   -9.040626 -16.802430 -19.541539
Pb  -14.732159  -6.487737 -26.379199
N    14.218317  18.239864  -5.742407
H    22.110789  19.433046 -15.817524
F     8.836129   5.582074 -34.713675
Xe    0.670059 -19.763497 -37.333631
Tb   25.745682  10.815275 -11.506926
Pb  -36.431171 -23.680249   4.334219
S    19.294517 -21.267755  13.950761
Tc   32.446639  -8.986930  16.803099
Co   18.330834 -21.817293 -31.808303
Te   -2.842887   6.605414 -41.857510
Mg   -6.346125  38.956811  13.588827
Co    8.424210  19.134699  22.217527
Mo  -23.592287 -16.060544 -25.280869
In  -17.990439  10.019403  10.100408
Hf  -22.458777  14.852745   2.069905
Be    0.125539  -5.309995 -44.138280
Se  -23.347609   6.143196   6.448984
Bi  -12.084797  -1.520613 -43.024884
Dy   -1.870271 -29.038051  32.733724
Sb    9.849342  41.947322 -13.044779
Zr   32.203115  13.174618  10.725937
Cr   -8.529425 -17.581026  21.407645
Pm    4.231261  42.355630 -10.171106
K   -34.494983   6.026528 -11.701190
P     6.414037   7.511063  40.684868
S     2.406878 -32.925933 -16.521382
Pm   -3.362372  30.360702 -15.179089
Y   -28.738383 -27.602840  10.202899
Al   -8.841390  32.102886 -25.699923
Br   11.351133  -4.515760 -37.486209
Ar   30.835429   8.934578 -17.811034
Na   38.435013  -4.008104   9.836761
Po  -23.735786 -33.235896  -4.834968
Hf  -22.922455 -22.124153  23.878303
Sb   -3.759483  10.171322  41.567215
Sc  -20.643202  27.574945  -2.068005
Ga    7.275857  -3.830510 -32.580853
S    12.812238   6.376408   3.746662
Ni  -10.557424 -19.695380  37.057782
Cd  -38.416543 -13.222300 -13.031063
Ru    0.024351  -6.949386  44.547425
Nd   -1.072074 -14.934633 -40.125167
Be  -11.533234 -17.209087  -6.506829
Au   -5.959443 -11.636414 -43.483123
Ir   34.722764  -6.536467  23.396161
Pm  -19.985251  23.245637   2.383644
Se    8.350165  -4.398761   5.874358
Tc   17.925596  31.864907  -1.877098
Er   13.903877  -1.700220  36.629336
Xe   23.320307  10.131078  16.042322
Ho   -0.196370  10.273612 -35.611659
Ca  -25.884077  -5.304097 -18.204515
Xe   -9.203032 -27.696726   9.308615
Ag   -8.323393 -13.605444 -22.044365
Sn   17.801359  18.401171 -13.177782
Ba   18.545074   8.053735  26.846102
Eu   13.678943 -23.237282 -19.131881
Au   32.962313  -2.380182 -19.040207
Ge    3.440777 -25.796889 -23.374075
Re  -20.694840  -5.849897   1.895007
Tl   -8.140194 -31.957288  10.270391
Cr    6.333690 -11.244117  11.099123
Ta   18.670519  12.982549 -27.294378
Rh  -17.231312  11.238467 -36.770686
Ru   14.715859  -9.708907 -40.699953
Hg   38.105006  -4.457333  -7.298948
Eu  -15.296382  34.640358  13.115054
Os   14.819174  29.454019   7.959365
Ag    5.526977  14.713989  -9.302607
Zn   -5.936870 -18.709617  35.218147
Ti    1.870436   7.696616  14.392546
Tc    7.662209  16.914018  -0.737944
Al   36.891911  -3.547452   2.927534
La    0.735609  14.412068  41.538032
Tc   -3.586572  13.626311 -37.364224
Y   -10.427127 -17.761862  30.583861
P   -20.778778 -22.281243  -4.419230
Mg   11.564798  33.463859 -25.136548
Ge  -43.863688  -3.902138  12.084530
Eu  -14.115366  19.595880   5.995904
Sc   13.124851 -31.597232   8.296485
F    -7.087038 -17.566896 -41.040684
Mo   12.996944   8.221667  42.859830
Mo  -21.114501  28.051652   5.048065
Yb    6.920879 -20.717384   6.290599
Er    2.921349  19.216342  14.705992
Au  -17.198254  29.920697  29.679672
Mo    8.699965   6.718942 -35.157107
Be  -15.788470  17.125010 -14.388719
Po    8.685483 -33.199639  24.706452
La    0.723925  10.665666 -41.175430
Si    6.096308 -26.694925   6.136310
In   -2.101709  -2.550526  25.329059
Se   40.936111  14.145548 -11.530716
V   -18.687887 -11.518926 -10.340455
N    14.376850  15.509455  16.761905
Sc    3.152013  30.227968  -1.728951
In  -25.095778 -24.620885   4.731861
Eu  -19.459398  19.501606   1.082826
Ce  -18.254233  13.120375 -25.374452
Mn   37.245345  -8.927187  16.296867
Ge    5.681341  23.952272 -29.212070
Pm   20.966973 -17.646349  -8.953001
Gd   17.277142 -33.461136 -23.524191
Au   20.915830  -0.191472  17.520254
Pm   -5.052795 -20.133932 -17.403380
Zr    1.530105   6.947358  42.957804
Ru   11.886934  15.167319  21.003753
Tc   -7.186761  -4.388788  20.283271
Ni   11.430200   6.847792 -36.148804
Cu   13.215774  39.851789   7.790536
Hf   -7.879611   9.917232  41.808088
Ge    8.377908 -10.100664 -18.013212
Be    7.401828   7.458672  35.159347
H    16.633267  16.345664   1.043665
Ca   12.948297 -11.456802 -18.062099
Lu   -0.948423  13.097428   6.498442
Lu   -2.835112   8.276358  24.377238
P   -41.568992  -5.620824   6.543369
Os   -7.418005  17.126069 -10.071879
Zr  -11.915240  40.501131  12.759866
Rh    1.636805 -25.169352  11.547823
Po   20.457517  26.328567  20.994172
Nb   38.259484 -10.222887  -9.919213
In    7.644007  -5.889452 -18.528576
Au    0.825521  38.722376  19.205449
Pt   26.629801  17.251597 -14.557336
Ni    0.127866   9.688412  -9.881083
B     3.529908   8.667571 -39.178765
Zr   -4.212255  20.105084 -14.271971
Lu   12.868724   3.178124  14.083301
B    -4.801092   6.326892  41.557368
Pb  -34.680166 -17.620863  12.764707
Yb   39.617550 -10.875786  15.636395
Ca   37.649316 -21.950690   8.327706
Cs   -9.141289 -42.719546   1.632529
Al   27.596825 -13.197717  -6.843173
O    29.348776   5.397129  -8.915703
Ne  -15.651585 -20.430181 -32.894977
W    21.261973   1.913900  -5.667026
Se  -15.994007 -15.337833  10.296478
Br   19.209926  37.347661 -12.604114
Pm  -32.579352  15.250291  10.265852
Au  -15.300033  10.877486  -1.653880
Nd  -16.407488 -23.935532   8.003397
La  -10.661045  -4.131625  21.981792
Cd   -5.304022 -21.200944  15.337204
Ta  -12.646225  10.727348  20.202941
V   -15.269113  -0.975186  41.599170
Bi   30.738330  18.813431   4.050927
Cu   33.991420   9.459411   3.850714
Be   24.615263  -6.235171  -6.383413
Ru    7.703519  15.624072  -9.933027
Sr  -13.389782 -26.419313  -3.190426
Cu  -25.357642 -27.451308   5.192867
C    13.826324  17.404197 -10.547357
Mn   21.424505   7.916421 -18.145887
Br   33.501847  23.992590  -1.912680
Eu   34.690736  -0.705769  -6.624396
La   12.821275   0.032252  27.230477
Ba   32.710078  27.168619 -11.291477
Si   -5.531945 -38.281040  14.105467
N    35.294214   6.159043 -16.613598
Cd  -15.923895 -28.188196  11.850325
Ga   28.838147 -20.805744 -25.549097
Pb  -16.133358  -9.425333  32.949448
Zn   -3.645494  24.041399   1.236043
Ca   31.681171  18.870132 -12.348564
Er   10.801184 -32.717217   3.360053
Ce   17.297834  21.610076 -31.770502
Cl  -11.362282  34.992105 -19.816515
Er    0.244461  28.468979 -17.595602
Ho    1.699810  -7.547363  36.165138
K     5.070755  38.434939  -0.585652
Nb   29.010454  20.887326  12.882950
H   -24.415074 -34.505325   7.362348
Tb  -17.123665  17.638907 -14.448050
Te   -5.213848  18.737623  -9.229284
Ar   -1.239449 -31.486097   6.349394
In   -9.902280  -6.271517 -38.408634
Ga   -4.226008 -31.107492  13.962272
Ag  -17.985916  -8.932954 -30.303513
La   18.830305 -38.375816  10.883893
Hf    2.012467  -4.171032  -4.715468
Eu  -33.299419  24.769728   8.411375
Kr  -13.784716  -7.241356  25.509699
Na   -8.222336  36.978210  22.019549
Os   23.414998  12.453902  -1.460755
Mo   -3.899755 -29.454483  27.965904
As   37.281063 -20.103590   8.701951
Ce   39.895238 -18.622732  -5.329930
Ca  -14.917746  16.823105 -30.234967
Os   -6.602964  34.741578  -1.984610
Cd   10.397474  41.933554 -11.036331
Xe  -12.055354  -5.922911  12.917013
Sn   23.877709 -22.869720  -3.124115
Rb    4.712682 -17.895211   5.956180
Pr   10.394780  19.368531 -32.222292
Eu   10.478207  -3.050211  29.514774
Pm  -13.421116  -3.080640  36.966937
Te    7.098250 -31.729982  30.458985
Au  -28.319403  -6.720691 -18.452906
Co    1.055847  13.285514 -12.418164
Hg   -6.264951  13.745324  -7.647718
Sb   -0.345449  37.377670   1.071700
P     3.552481 -15.725878 -32.700657
Si   -7.206839  -7.712578   4.275021
Gd   26.297102  -9.519624 -31.812059
Nd  -10.531453 -33.431736  -4.461103
La    0.806137 -13.518415  -6.419863
S   -36.828403   4.219382  16.191336
Ga   20.185193  15.960410  -8.711760
Sc  -21.932527  -8.271602  31.805606
At  -13.452703  -9.556965 -34.203797
As   10.478979  -6.205616 -19.463575
Ce  -36.314240  -7.869849   2.477402
Kr  -30.945208 -28.067130  16.414212
Li  -41.194749   8.270937   6.740323
I    33.732119  25.787029  -3.919960
Pb   15.863130 -33.881950 -16.204570
C    -9.313170 -16.835396  30.419657
Er  -29.383826  26.346529   8.130130
Re    7.756999  -3.410420  18.808338
Fe   -0.606300  -7.458781  16.749289
Si   15.664065 -15.807510 -14.725134
Ce  -31.044356  -0.963689  21.461566
Sc    3.011110   1.337977  19.667521
Re    4.316539  37.315603  12.403184
Ba  -14.040320   5.118854  11.782567
Mn  -11.341386 -33.082084  -4.197355
Ta   -7.738544  10.873983  -8.411903
Er   15.889525  30.759637 -25.947436
Ge    9.904780 -35.023415  -5.552849
Ho   -8.850716  -7.822814  -5.063527
Ti  -24.482333 -21.262391   6.976622
Bi  -15.291019  -5.518497   0.337915
Mn   10.963142 -22.918359  -6.918141
Cr   13.285545 -15.594661  19.214577
Ru  -27.706270  14.910787  -2.159914
He   26.549360 -20.646979  -5.053166
Tc  -38.414689  -1.386802 -22.756722
Sm  -34.500583 -12.319595 -13.080980
Ca   37.931604  14.683668  18.792511
Cl   -3.300897 -25.152624  26.060197
Gd   26.261124 -19.562875 -22.925852
Eu   43.231601  -4.053924  10.759290
Zr    9.551616   3.935878 -17.317604
Li   14.856236  41.551644  10.785944
S    14.750741   2.302797 -13.761293
W   -12.311483  18.222018 -20.969702
Hf  -29.326124  21.415875  -1.682881
Re   -7.756035 -20.150939 -13.909824
Zn   -9.968083  16.852052  12.811369
Er  -15.071652 -40.576510 -13.517812
Cd    6.143394 -28.855786 -26.637487
Sc  -18.933477  24.838729 -20.760916
B    19.211691   2.384081  21.602774
Be  -19.412245  23.644922 -25.604297
Be    3.439724  -4.269309 -14.187747
Hg  -23.856079 -10.154856  11.916181
Cr   33.480412  10.983210 -10.942491
Lu  -21.736935  -5.431922  23.726359
Mg  -36.760815  -9.121928 -23.120883
Kr   28.132603  -4.275713 -24.682648
Sb   39.468405 -16.241032  11.485186
Te  -22.055078  29.131013  12.281104
Ce  -12.030326  11.472081 -31.866323
Cr   38.262017  16.847129   8.172589
Mo  -10.160568  -8.227179 -29.181370
Sb   -1.325948 -21.646769  23.525747
Cr   -1.516673 -26.096429 -10.619326
Tb   -9.672781  19.600094 -38.741663
Cs   26.297159 -10.104614  -3.790447
Ho   10.324088 -27.361593 -29.184820
N    12.564363  -2.737605   4.863358
Pb  -18.961518 -19.452734 -17.464717
Ho  -19.241249  -0.032553  -0.866050
Se   -9.900788 -20.513992  -2.042916
Cu   -1.213106  14.829426   3.605048
S    37.782462   7.318365 -22.577605
Nb    5.973026 -16.768612  -2.995354
Tl  -14.830500  -4.848833 -29.996738
Nb    4.631793 -10.768396  21.805065
Ca  -10.755998  31.435039 -10.740462
Eu  -25.780759 -27.021587  19.812442
Ru   -2.540990 -20.623270  27.628405
Ti    1.161632  -8.226172   4.798611
Ga    9.425237  13.493655   1.489057
Ir   14.283413 -31.147438 -28.646391
Au  -36.953818 -10.141470  -3.865379
In   -8.067812 -38.577032  -4.596298
Ga    5.018562  35.169863  10.231488
K    16.081331 -10.788748  10.633719
Cs   42.911122 -10.597391   4.405940
Ta   32.254837  -4.193168  11.001763
Ca  -23.295987 -13.209810 -16.962362
O    26.872935   2.829613  29.063176
S    -4.815281 -28.265846  19.766273
Be   -6.673761 -23.670200  26.886430
Ho    1.660200   9.144661 -12.775541
Te   10.355991   8.627367  13.495802
H     7.520103  24.320695 -20.287428
Sc   36.790452 -12.433415  19.992910
Re   -0.488441 -30.827257 -10.182729
Cr  -31.134315  18.456247  21.496630
I   -26.456536  16.384070  -8.365254
Ag   24.042837 -18.695229 -12.059454
K     4.970778  29.027705   2.508839
P   -17.869995 -10.578949 -20.195547
Sm  -12.270499   9.426930   3.552585
Pd    2.288522  -8.536427   7.349966
La  -16.565276   8.418929  -3.013829
Xe   -3.673257  -9.875544  15.044658
Sc   -0.412005 -14.875976  31.811744
Ru   24.466401 -11.530888 -15.811701
F    18.279637 -29.309822 -19.356586
He  -40.837259  15.444317   5.203734
Cr   21.427428  -3.360929  21.280844
Po  -12.902129  26.116185 -27.985725
Re   22.070448 -16.102350   9.236932
He  -25.256847 -23.205033  27.732269
Ir   10.753793  11.931371 -11.529993
Kr   -1.421219   5.290356  18.087529
Hf   40.907129  13.211439   7.653320
Ne   32.567068 -12.203628 -19.080469
Ne    7.543644  19.839828 -21.706137
Lu   -8.637768  -2.992775 -34.769007
Nd   22.288715  11.260498   7.153044
Rh  -28.778037  -0.964506  -8.453940
Y    -0.234334 -26.392603  10.635113
Pd   18.562563  27.977632   2.295618
H   -40.927052 -10.754150  15.355641
Ta  -33.412716 -27.225895   7.948327
C    30.057251 -20.390860  27.397843
N    -7.102202 -17.516499 -19.504829
Na    5.306952 -36.514410   6.213626
N    10.097762  -8.092717  27.538189
Ge   -0.285578  -8.169170  11.492093
Te  -36.231537 -15.293380   9.493939
Eu  -29.867372  18.473518  23.047260
I   -11.664837  30.226545 -30.190983
Sm  -33.805849   5.866603  11.579111
Cu   12.333249 -10.042564  36.666221
Li  -12.438468   3.430808  22.423453
S    13.411879  33.139967  27.256282
Sn   32.751846  22.848514 -18.385609
Ag  -11.082990 -25.794565  35.359938
Ce  -39.751139 -11.693233   1.118212
Sc   -2.686045  -6.895336 -21.978297
Pr   -2.586886 -32.036660 -20.521146
Pm  -35.843442   4.867518 -22.823526
Te  -34.110575 -29.885649  -5.234694
Tc    0.358581   3.831727  35.916067
Ca   -8.508446  22.347397  35.519365
Hg  -32.134517   4.233824 -13.045251
V    24.933919 -21.553133  11.478277
C    -9.076520  18.769437 -36.804317
Ge  -16.738092  30.825651  -5.425420
Ga   -3.979981 -15.811833  17.239272
Br  -27.038076 -13.255937  -4.032294
Zr   41.174572   9.887982  -6.761554
Ar    8.816376   7.320991 -37.285458
Ar   20.222289 -33.886250  22.491818
Sb   25.316498 -24.084997  14.245313
Li  -11.050958  -2.744571  30.463751
Hf  -12.424058  15.599612  -8.434158
Pm    0.226859  29.212550  18.694395
Te  -15.641538 -37.430717 -21.035935
Rb  -35.750669  -7.476931 -25.719724
Zn   21.383925 -12.991438  19.861157
Ar    8.662721 -33.412874 -28.212024
C   -16.536391  -3.380923  16.726771
Si  -26.199313  11.223949 -10.413753
Br  -11.957063   1.651584  42.243818
Si   22.845774  18.714163  -0.721555
Zn   24.039892   3.124260 -22.300762
Na  -13.766885 -34.842142  -6.231720
As  -13.651521 -36.235438   2.726000
Co   -7.822594   9.216818  -2.959428
Si   21.460036   8.400361   2.458690
Cr   27.247402  -0.653026 -29.427986
Mg   23.239062  29.391758 -23.276727
Hf   -5.765990  13.346314 -27.209727
N    30.430654 -11.886163  17.633505
Rn   10.547667  35.008187  12.742544
Pr  -18.149445 -19.844417  25.421712
Bi   16.822405  38.372213   0.941250
Rb    0.536010 -19.628316   5.638501
Te   -4.314855  -5.129917  31.523817
Zn   18.493308 -33.523649  -8.923790
Pt   31.180590  31.967669   4.781362
N     5.437661   5.720958 -17.441391
I    14.407894   4.276944  10.603908
Hf   22.047167 -27.219177   4.270823
Te    0.304820  29.812076 -26.295382
Nb  -15.296772  25.293934  18.503317
Sr  -14.831473  16.260722  21.217395
Nd   10.202431  12.041120 -16.099980
Pr    2.758813 -29.555664   1.175767
Hg   33.921807 -10.049645 -21.593442
Co  -11.959409 -15.977658  25.922291
Er  -25.332211 -14.859658  25.011265
Sb   20.482106 -11.304568  -7.662673
Sn  -23.976761  32.900695  18.824259
Os   18.199501 -29.128205   8.979868
La   24.246830  23.678064  -2.545074
Gd    0.161226  30.625982 -31.506957
Ge   11.476216  35.003020  23.092510
Be  -23.941593   3.965898  21.020144
At   31.347992  13.318441   2.522951
Ga  -12.473904  26.437236  24.576102
At  -10.816850  18.253848  -6.035740
Cr  -30.938090  23.206659 -16.974248
Au  -22.834469  -6.774901 -18.543384
Ni   27.046141 -11.598351  23.986679
Kr  -38.720296  -3.053764  20.807101
Lu   15.902686  24.231633  12.162283
Ga   31.446367  23.445318 -13.994193
Ar   13.495698 -18.379300 -36.250538
La    5.347829  19.425162 -28.233097
Ge   16.769178 -18.307198 -19.349829
Zn    1.456918 -24.020092   2.080488
Sm  -36.261051  13.731087  12.136891
Au   24.268119 -24.320757  27.729445
Fe   -2.342651 -25.418426   8.673374
Cd   20.729782 -35.429593  -6.283839
Br   32.987982  -8.995419 -10.069381
Te   10.938200 -21.947972 -19.323413
Ru  -14.293448  36.306870  -3.227456
Sm  -29.817261  18.479588  -9.669832
Po   21.549804  15.535850  21.212072
As   27.935006  -2.431643 -25.074347
C     2.560282  22.403196  34.219319
Cr   33.771573 -11.492683  19.096774
Rh    8.052102 -44.833424  -1.747670
In  -18.145267  -1.573892  17.068309
Po  -22.108188  -1.861006 -16.811771
Nb  -33.031691 -16.275354  -4.802022
Sb   10.057623 -23.401314  13.332198
Tc  -37.140120  12.926708  22.007139
Tc    8.372385  -5.099378  -0.302563
S    -2.995074  10.815365 -43.319640
Co  -33.739325   5.978459  -1.388182
Ni   22.384834  28.860107  -9.567955
Ho  -17.788918  29.710890  15.946913
Fe   -0.104037  -1.602587  23.496722
V    21.703577  21.914088  -1.548900
I    29.368963  -6.495864  -1.157884
Sc   16.986520 -27.828998   1.819851
O    -2.599743 -16.122393 -32.899340
As    7.005100  39.368317  18.924469
O     5.498735   3.128257  20.319867
Er  -33.835229 -21.839363 -17.469809
Hg  -18.857655 -16.688998  -8.644188
O    -3.001171   1.724524  36.997212
Dy  -16.226389  16.383167  30.026823
Pd  -23.201898 -29.761833  17.898140
Bi   11.981958  31.868806   5.102208
Cs   18.307552 -21.412694  23.745952
Ca   17.847625   0.666852 -30.761618
Ag  -10.390797 -22.857384  27.218936
Te    4.499989  22.930927 -35.800507
O   -11.837880  41.455766  -4.096735
At  -24.565926   1.474228 -17.734827
Se    7.755630 -26.354841 -15.764532
Be   -2.639774   3.698853  11.368548
He   10.522277  -4.283223  -6.753824
Sc  -21.164535  24.373354  -7.568525
Fe   -9.427529  -6.396711  23.718888
Sr   -6.115102  25.088882  15.720717
At   -8.496934   8.606572  30.252383
Nd   -6.153100 -16.545941 -25.708202
Xe  -12.052697 -21.275574  29.896436
Sc   24.490095 -33.101190  -3.975740
Na   40.363704  -3.640069   7.443650
Y    13.796825 -15.623518  -1.679542
Se    4.942311  -3.742912  -4.334025
Pm   15.059391   7.695938  23.361458
Zr    4.586692 -12.085352  32.354715
Pr   -1.722742  25.151210  24.867892
Ta    2.388471  30.042484  10.162579
H    34.383803 -27.291863  -3.553833
S   -28.344599 -15.533989   7.077654
Gd  -15.319802  35.595280   2.753263
Fe   38.954086 -22.782908   1.440828
Pm   -9.487263  -5.417174 -20.364617
Mo    3.704251 -23.673213 -32.658550
Xe   -4.630078  12.394221 -43.386275
Tm   20.833608  13.608213 -33.431277
Cr    4.408200   0.322913  23.012860
Cl  -29.734310   9.643790   6.145066
Tb    7.234122  19.951855 -10.437062
Ce   23.750454  -6.643640 -13.447134
Au   -9.985979   5.849123  -1.544639
Po  -32.141368  18.467291   4.749108
Ta  -12.887315  19.617890  24.037344
O   -15.053955  26.081167  -7.679673
Tm   22.259299  -6.570819 -21.027939
Li   19.922417  20.090302  -6.289588
S   -25.320564  13.423192  20.117565
Si   -1.840101 -24.190841   3.744673
Ta   18.362761  20.605490  27.663746
La   -0.133133   5.010814 -42.885460
Au   -4.305769 -40.091603  -4.127862
Ba   18.250763  -9.872246 -24.877169
B    11.080605 -13.762075  -6.620644
W    -3.084943 -36.698734 -24.953313
Hg  -18.246396  23.368123   4.962665
Mo  -37.268851 -24.502655  -3.185073
Ru   -7.947276 -30.553367 -18.567231
C   -15.594621 -11.494861   3.784860
Pr   14.119095  14.930513  36.017963
B    15.467028   6.948839  10.196057
Br  -28.178032  -3.416056 -33.293698
Ca   32.910900 -26.509375 -10.938470
Po    2.603305  17.751870  34.328799
Pd    9.390159 -36.565219  -7.115054
K    -4.212515  42.900416 -10.013007
Ho    2.092824 -20.122678   9.686251
Ag  -27.035264   4.936808  35.724853
Rb   23.306124  29.652066   3.634031
Po  -15.641239 -28.369723  23.210360
Cd   33.574292   3.580214   6.823740
V     4.736075 -18.640438 -35.201822
Cd   10.849701  42.167480  10.713587
Sb    1.549194  39.983987  22.089870
Co  -33.048617  12.472958  25.191361
Hg   25.437668 -14.428425 -29.607419
Xe  -12.135585   6.474691   2.808365
Ba  -22.025664  31.755002 -14.733923
Li   -6.361313  23.994999  38.146161
Pr   33.314252  21.721564  21.903498
I    39.499156   0.927461   8.246732
Sr  -19.366377  -6.744141  -3.390309
Nd    0.750028  -9.586242  42.388231
Nb   18.580111  24.565277 -30.253567
Os   28.531633  25.150903  -9.945977
N    18.397389  19.109459  15.754497
P    -1.750310   5.293892 -44.166518
Kr  -13.541780 -23.888707  -3.857923
Fe    5.666424   1.388358  29.557926
Au    9.770812  18.164219  11.275477
Br   -1.710607  25.980397  15.945604
Ir  -21.054069 -22.406086   6.483351
Y     9.633957  33.465143  -4.137744
Ba  -19.190297 -12.169322  -6.405783
Li   -1.349729   5.859232 -16.908229
Y    16.854774 -17.770797   7.414467
Au   10.421527 -19.043828  10.804056
Kr   33.012544 -22.613777  -1.809699
Ni   10.673987  30.328332  11.540727
O     7.932982  -1.134380 -12.943624
Bi  -23.592487  -4.051014  -4.176031
Sn  -13.938509 -33.757640 -17.317829
Po    9.143233 -24.328164  -0.668808
At  -28.346826  25.406861  -5.839033
Cd   -3.543983  -0.601860 -36.226242
La   21.254659 -24.282449  18.415893
Al   11.951019 -16.725856  40.670029
Al    1.083157  19.894614 -33.427289
At  -27.529066  19.455918  13.541651
Pm   17.555992  10.902584  27.731670
Zr   36.478075   2.641745 -12.157534
Ho   39.939869  -1.725492 -19.997414
Sn   12.009436   7.978646 -22.981874
Sr  -20.752004   7.007626  36.946862
Yb  -21.574325  38.930722   8.366264
Ne    9.164992 -14.386093  25.490775
Mg   16.661393 -10.121406  34.276224
Os    2.370981   2.014819 -40.354879
Mg   19.977841  24.984822 -13.633572
As  -20.722872  35.387774  15.499790
Yb   34.294417 -15.725259 -12.781508
Sc   -3.636597  17.280064   3.142301
S    24.269330 -29.635568   6.069713
In  -18.552336  23.572491  10.261375
Os   12.356229  -3.079636  32.442131
Ru   14.665902  30.934030 -20.395639
N    26.313495 -10.368475 -24.281264
Os  -28.285131  26.680668 -18.431009
Lu   11.890312 -27.855691   3.095278
Sb  -33.630038  21.526487 -12.706890
O    -6.110773   0.188643 -21.271402
Pb  -27.886402  -0.142863  14.566718
Ho  -24.691746 -18.117950  29.589676
Tc    3.980816   6.011330  40.939887
V    -5.479677  20.938257  -6.414900
Hg   41.630909   4.567280 -14.781586
Yb  -22.790992  -3.805548  33.663282
Po  -19.778806  -6.560363 -15.136307
Rh   20.605948 -13.248833 -32.268942
Tb  -15.833466  20.068607 -33.822336
Mn  -14.504291  -7.219713   3.792169
Ce  -33.362976  -5.930958  12.819180
Au   -0.496209   6.877646  10.048078
Cl   22.138134 -29.042056  22.853837
Hf  -12.362303  19.408435 -26.583539
Ce   25.846147  -1.195749  35.596327
Tb   -8.922069  -9.106375  18.721155
Sb  -39.852747   7.572126 -13.486160
Po   22.096354  22.367692  12.562891
Er  -22.976566  12.042613 -22.458677
Pm  -14.693177  27.241893  -9.182673
Re    0.929156   8.670850   8.972256
O    -6.123337  32.440478  -9.595750
Xe   11.769369  27.424003  -9.618276
Mg  -14.456150  15.735134  -0.404633
Mg   17.986124 -11.895919  34.136663
Kr    6.196042 -22.347240 -33.100881
Pd    5.868604  42.886630  -2.455865
Kr    7.273239 -30.380750  30.232514
Hg  -42.671376   4.581618 -11.716647
Ne  -33.182999  28.002156  -4.593555
Se  -15.009254 -27.565620 -21.181023
Te  -18.365044  -3.307220  17.097799
Sr    4.412548 -23.964490 -15.622682
Ba   10.038649  18.632242 -28.456196
V    26.702915   4.079269  30.371754
Ti    7.985461  31.530200  16.977914
Zr   -2.833665 -10.140518  -0.950867
Te    7.263333  24.499154  11.437914
Rb  -20.039218  28.329942 -17.271274
Pm    9.277083  13.897917 -29.949747
Zr  -25.867517 -22.325388 -26.221092
As   25.027465  -0.311082 -10.232889
K   -23.501544   7.518279  17.345201
Tc   20.492285 -28.153374   8.207424
Tc    5.238783   9.232237 -11.269938
Dy  -19.011854  -3.564774  16.558855
Al   -3.710969 -15.373517   7.609156
B     4.416692  -2.675360 -10.733345
S    -2.387464  -2.562728  37.937137
Ir    4.047474 -40.037497  18.387198
Eu    4.832934 -37.130498  18.041599
Gd   34.623002  10.898446 -23.307723
W   -19.986267 -22.941609   7.327079
Rb  -17.537258 -30.963862 -11.588167
Hg   25.755912 -21.819304 -12.992521
H    -8.470595  27.208866 -29.826880
Re   20.670248 -32.011817  15.128712
Tc  -24.054473 -28.703429 -16.834460
Kr    0.263555  13.380659 -25.719630
Lu  -36.735645  11.239382 -15.631418
W   -32.159687 -17.160640   3.913230
Zr   21.468801  26.856899  -9.099402
W    37.919745 -19.603139 -14.703307
Be   14.889943  20.319795  35.750061
Mo  -34.334881  -4.970164 -26.211921
Y    15.782729  13.461126  27.334374
V   -38.972135  -8.508065  -3.620804
Nb   27.277255  16.686439  19.712674
F    16.384161  12.698147 -18.754958
Os   33.287322   8.334596 -23.875160
Mo    1.259802 -17.210755 -39.045063
Te  -35.237884   1.260330  -5.263165
Re    0.479640  22.439382 -16.474137
Co  -16.558622  41.607695  -4.020999
In   26.555376  29.974427   2.753581
Mn   -6.757714 -26.557059  -9.664634
Eu  -23.168105   1.193126  -2.327242
Eu   23.976544 -16.320835   5.215400
Ru    4.132069  43.106969  11.995149
Ne    6.454054  19.316583 -20.379479
Eu   30.992796 -27.629989 -12.556929
Y    36.981734 -13.937002   8.047076
Co   24.046278  20.044720   3.715180
Tb  -24.488689  24.714350  -9.559579
Sr  -43.870041  10.226574  -3.134750
Sr   -1.351090  37.675297 -11.023472
Mn   25.374714 -19.800022  30.609735
Yb    9.582255 -19.738912  21.218846
N     3.811015  -9.081474 -23.157168
C    35.285546   5.631854  15.932196
Lu  -11.256346  13.042827 -23.816313
Br  -20.798139 -28.036793   4.572323
Er  -16.426720 -11.632339 -33.240502
Ba  -37.481466  14.492577  11.069682
Yb  -15.655894 -31.578822  -5.656923
Er   -1.561496 -39.986052  13.260995
Tm  -16.169959  32.723757  17.619489
N    13.127534 -19.411706  30.071368
Er   24.325247 -34.290903  17.894196
He  -23.840832   8.881760  27.234992
S     7.021418 -22.140646  15.638131
Y     4.641598 -17.355612 -16.934669
At   14.338650  -0.585502  39.192842
Hf    0.794600  23.757134  38.473759
Y    -0.460738  23.887193   3.161777
Ho   12.623605   8.957318  -9.888544
Tl   16.633281   6.233733  11.064667
Fe    7.387558 -28.731351   8.205645
O    17.664849 -21.114886  25.554929
Er   -8.467739   3.035974 -40.084407
Br    6.075152 -40.734735 -15.625471
Pr  -13.127943   7.566003  22.343940
W    15.043907 -11.722115  11.979435
Pm    2.321536  14.355021 -20.995477
Hf    4.567391  32.138271 -29.372268
F     5.669905  29.217364 -13.164314
Y    31.802390  19.741374 -19.181821
Ir   -3.107964 -16.909463  17.185479
Bi    5.304372 -40.905863  15.064622
Br   22.681847  22.180941  26.892125
Rn   29.893777  -7.850113  23.176442
He   34.001506  -2.231153  -1.609107
Re   -8.911238  20.076564  13.739568
Te   25.995553  25.586390  -9.966594
Ne   21.309242 -10.308082  -8.940860
Ce    4.472276  23.551483 -29.350623
I   -30.876753  -4.209034  24.950329
In   -8.309429  24.019960 -23.606996
Cr   -3.202613  -1.259164 -32.787149
Tl   25.371972 -16.483441  -1.513978
P   -28.163302  30.621369  -2.276700
Ba  -18.821867  13.945052 -26.448315
Cd   17.976775   0.478305 -31.833783
Pm  -21.887626   1.658905  33.292073
B   -22.251036  -3.217872  -1.147054
Hg  -21.081040   5.727385  -4.419316
Rn  -10.616475  -8.142533 -12.923936
Po   41.778143  -3.058792 -17.943213
Hg  -24.599041 -25.481500  19.380926
Cl   10.755330  29.173709 -15.069551
Mn   -9.969539  20.956511   7.981123
F    -0.094810 -22.336278 -39.242676
Ru  -25.561162 -28.355288  21.259106
Se    7.005281  -7.391930  -1.933805
Cd  -21.861723  -1.522313 -27.355798
Mg   29.818697 -16.771764  19.865492
Ca  -15.230639  18.990695 -35.617733
Yb   22.383865 -16.466832 -12.383919
Er  -33.979330  19.493475  -3.040651
Ho    7.021001  -8.881755  -0.957302
Ti  -34.485634  18.034270   3.523483
Gd   -6.314775   8.774326 -19.169729
At    6.162704  16.691474  14.821298
Cs   -0.298307  12.782374   2.758747
At   35.492149  23.983027   6.861388
Sr    4.176713 -18.602935 -31.671418
S     5.868361  19.136715  18.074466
Pb   -0.406343  29.217671 -22.762715
Cl    7.276287 -15.256369  33.951161
Ag   -7.621708  -8.825888   1.822559
Tl   24.759076  26.970149 -18.703433
Zn   14.737395 -12.865966 -27.138646
Be  -24.355628  -1.363445  31.087885
Ni   -7.336568 -25.098483 -24.917848
Gd   24.609000  13.964648   2.433869
Ho   -1.198024 -37.104170  -5.076167
Cs    1.052658   6.483141  30.672387
Cu  -20.846327 -28.509796  15.084665
Cu  -14.312237  -0.557463 -17.555547
Cd   21.497420  23.666059 -13.075565
Hf  -14.865190  -7.694646 -28.727137
Al   12.369678   3.717135 -22.325982
V    23.093677  -5.206801 -35.416233
He   -0.471299 -31.997249   0.792331
He    1.998445  42.897794   2.720966
Pm   29.367728 -30.120646 -17.857221
Rn   -7.538996  30.839096   6.690782
Cu   -6.889786   6.222955 -37.782481
N    15.241193 -18.946708 -34.558678
Rn   27.656260  -7.133859 -31.973002
Ta  -12.795910  12.889959 -35.035823
Ca    2.208395  -2.790393  -2.423110
Br   17.468770  15.038689  31.798552
F    -9.839800 -23.580163   6.570903
Br   22.580361   4.961547  -4.255326
Rb   18.712412  40.499419  -1.982110
Rh   -9.515618  -1.288675  -4.332412
Ir   -8.490015  -9.098399 -13.690915
Be    9.225432  -9.215670  11.046578
Sn    1.190784  18.903053  -4.306641
Er   35.109047 -23.502302  -4.571561
Dy   23.114140  30.727836  17.753371
Mg   -0.987217 -35.408550  -9.847860
Se   19.621948  -6.314372 -19.946021
Ce  -26.577732 -22.334988   9.375407
Y    -1.498354  -4.404772  41.085363
Rh  -27.344329 -26.839281 -19.680893
Ge  -17.488717 -10.450331  13.186829
Re   15.012986 -38.486242  19.049591
C   -17.290944  32.673768   0.672955
Xe   23.365866  13.776939   9.269803
Nd  -17.408396   6.256077   1.917773
Tl  -25.623260  -4.054120   1.318230
Tl   19.907171   5.033261  40.083038
Mo  -27.988363 -21.722901 -19.672695
Kr   18.197487   2.725976  32.289708
Ho  -27.575971  19.882061   0.983935
Ne  -20.012620 -33.558192 -22.074845
Lu    4.011067  24.419510  20.860986
Tc   14.720380   2.709558  14.852343
Cl    3.662505  -8.559697 -28.162274
Gd    6.023573  20.331776  25.870095
S    27.226072  18.622137  17.553878
H     6.535962  12.101809 -14.408469
Y   -11.098503  -4.435460  13.477372
Pt    9.241138   3.510112 -31.798509
Rn  -40.909320 -10.447564  -8.136806
Rb  -11.128548  27.270024  16.296131
Ne   18.850230  18.215542  -6.266759
Ti   17.182144 -25.371768  12.688053
Kr  -14.797523  32.569146  -6.558765
Tc   16.646251  20.232062  20.418230
Be   19.211694  23.876158  22.977776
Sr   40.593875 -13.049710   0.351326
Sc  -36.408807  22.316455   7.682631
Tm   -9.582916  39.895001  19.056650
He   12.544028 -29.719762  -9.004694
As  -12.581751 -21.218502  -1.970483
Rh   -4.252786 -38.798389 -19.227262
F   -24.000591  24.104224  20.189353
Sn   38.062900   4.148703  11.490477
Mg  -13.738808  13.597040  29.555326
P    37.874520  11.487044  16.314260
Sn    8.868454  -0.823802  22.602932
In  -26.175621   6.491974   6.035353
Nb   -2.238382 -14.317762 -34.857237
Nd  -17.299319 -12.009583 -37.389694
N     1.722546  42.564286   0.311796
Pm   13.967880 -32.465615  -4.030288
I    39.119882  18.588506  13.516439
P     5.190158 -19.080357  14.369085
Sb  -38.846315  -7.728756  14.868308
Pr   -9.685212  21.072785  19.001483
W   -16.513100  32.677962 -20.610593
C    24.922189 -25.141697  13.779149
K     3.917259 -39.282277   5.963482
Tl  -17.042185 -30.813979 -17.414187
S    24.863837 -11.457083  -0.530630
Nd   -4.968976 -30.131667  10.416685
Ne   12.381321  33.204921  15.526685
Zr   12.104160  33.414713 -11.276284
H     2.749617  23.459555   0.994148
Ir   33.056661  -3.239617   8.589614
Cu  -41.143406  -5.858833  16.830864
Be   -7.555364 -11.626106 -39.866873
C    34.920746   1.174274  -1.706038
Cl   -2.373616   8.651847  12.699063
Hg    2.106109  30.916050  23.793286
Pb   25.054486 -23.522372   8.945848
In   14.977500 -16.728203  31.924355
La    8.852817  17.799206 -33.832317
Lu   -8.728411  26.120593  18.000914
Rh   18.823071  19.844442 -10.469647
Nb  -21.326225 -20.588480 -31.961944
Ne   18.527793  -4.576353 -19.377230
Ir   -9.973960 -36.947977 -24.036731
Li   12.092385  18.723744 -27.651260
Sn  -26.370997 -10.660101   8.968937
Cd   -8.944053 -10.587341  27.041168
K    -8.108329   5.229285  15.489785
In   18.390674  -5.951473 -19.666510
Co   40.329923  17.230896   1.497995
Ar  -24.066577 -27.128275 -11.507917
I   -20.979334 -11.778767  24.912689
Er   -4.609972   2.818224 -36.217171
As   16.637113   1.394490 -21.973009
K   -18.519872  32.691836 -17.181430
Xe  -33.470802 -24.716513  -1.274213
Kr   -2.256966  -1.114439  25.504172
W     2.560635  -9.392572  23.789797
Br   12.432080  18.557430 -33.608692
Co   -1.028484  16.199125  35.172355
Cl  -15.820456 -30.045706  13.903808
Sm   11.690091  -6.229217  37.665254
As    2.736490   6.100458   7.691402
K   -13.525636 -28.597274  19.451690
Tb   -4.107021 -20.025812  26.502787
Cu   21.588674  -5.960881 -13.451056
Ga   -9.951421  12.534518   0.728220
Yb  -27.750864 -18.048910  27.817265
Rh   23.962681 -29.451019  -2.311298
Ga   11.714155  21.123265  13.980799
Ni  -15.338134  20.405946  29.422489
Ga  -12.606728  -9.025097 -22.657463
Ne   18.854508 -24.836978 -25.930242
Fe   31.177815  -4.286463   5.499920
Os   12.413474  -1.357435  11.868642
Cs  -32.830366   3.416809 -26.273778
Co   13.173610 -15.018554   5.307832
Yb   12.732656 -41.966498  -1.194288
Re   33.200394   9.523673  19.759045
Tb   23.076203 -23.635884  10.328306
In   39.393389  15.275662  16.258589
Mg  -27.485041   8.115783  24.720271
K    34.380929  -0.995162  15.406396
Pd   -2.336730   2.241638  -3.666259
Ti    7.696975  12.408128  -3.624963
O     5.740613  41.400818   3.862744
Ni  -11.035261  25.784895 -13.158967
Au    2.492282  42.311412 -14.987336
Lu   -7.686665  32.441081 -10.591765
O   -11.524300   3.492066 -31.169294
La  -32.099599 -26.268665  -5.771452
Na    6.120824  -8.777287 -29.461491
S     4.255994   7.565434 -34.931635
Dy   -6.756395  36.177335  10.955476
Nb   26.534075 -25.622940  25.723051
Yb    6.663059   8.441649  37.920387
Hf    0.589567  -0.664090 -45.125355
Yb   -6.151675  44.451888   3.292290
Mn   21.890647  -3.664860   4.978647
S    20.915674  32.024471 -22.556421
Ge  -14.750847 -41.174509  -2.531202
Hf  -14.331673 -20.947837  -5.530004
Cs  -21.817015 -19.421472 -22.713188
H    -3.542286 -35.505740  -2.798538
Ba  -29.682033  16.360213   9.015768
Rn   -9.138881  16.831542  -0.867117
Ta  -26.092217 -18.230899 -29.772334
F   -16.112691  29.075678 -19.922900
Y    12.059723  -7.012080  32.406995
Cd    5.464685  -5.634971 -40.046640
Xe  -15.523767   8.146838 -29.541194
Be   -8.916780  13.149715 -18.474641
As   10.367931 -38.599911  -0.694985
Bi   24.683506   2.935404   4.270987
At  -11.107941  21.682536 -21.868743
As    6.219581 -26.342783  20.608905
La  -33.851441  -8.593147 -27.815677
At  -26.703711   5.219818 -25.796451
S   -11.004766  -0.122979 -14.354152
F    -4.655627  24.884104  -5.069037
Zr  -22.594226 -24.628184  30.619594
Al   -0.104060 -24.476506 -19.153734
Pm  -16.551162  -4.340825 -22.794972
H    11.226762  -3.683153   9.030860
Ge   -2.564250   3.270399 -19.954245
Co   27.067035 -29.529188 -10.784015
Mg  -25.400640  14.466183 -33.230511
Er   -2.253665 -10.444276 -33.453864
Nb   27.406831   0.250755   7.415682
La    6.567923 -20.315180  -5.499253
Mn  -15.953360 -41.635853  -8.789405
Dy   30.275781  14.380866   8.314866
Sc    5.412453 -28.867034  16.043422
Rb   18.798428  11.089820  -0.930575
Sm    7.490498  -1.584315 -26.515229
Rh   24.535868 -14.101818 -22.111194
W   -42.389357  -8.490387  -0.196705
Ta   14.282749 -37.434206   2.904491
I   -27.238747  10.827852 -14.838508
Cr  -40.130885   3.262257  10.559691
Be   16.900678  -1.695907  12.727166
Y   -15.971136 -31.855515  18.279798
Zn   -7.841189  38.223862 -20.855614
Sc   11.075585  30.369719  -7.217790
Nb   -8.289592 -11.145957 -41.774317
B     5.240488 -29.734661   2.343755
At   11.759469   1.392796   6.865854
Ru   33.991911 -18.334145  20.391254
Ti  -36.563313  10.052848  24.011310
Ba   33.616103  -1.115204 -11.639605
Sm  -20.956060 -22.151601  -5.572865
O   -23.754380  13.709092 -30.007495
Dy   15.056366 -40.555576  -7.442381
Cs  -19.053553  31.047862  12.127221
Sc  -22.688701 -23.106405 -18.743675
Rh   19.236826   4.924769 -31.842366
Na   13.879765 -29.730517   8.158134
Y   -15.270919  15.444379  31.173555
H   -21.336587  -0.758396  29.480905
In   26.272599  17.025579  -9.506330
Sm   37.285736   8.330690  -5.494513
C    -5.129933  -7.172843  34.671690
W     3.451429  -7.238340  35.530236
Po  -16.893259  37.787139  12.725781
Hf   -8.391602   0.301036 -42.157429
Y    -1.629212 -37.122578  16.100644
K   -15.330716  16.155319 -34.129801
Li   20.685707 -20.277726  12.632944
Gd  -35.700542  -9.994855 -19.978647
Eu  -24.741102 -27.103519  20.193315
Bi   13.434427 -11.914378 -13.330927
Rb  -33.759228   0.359880  30.582585
Ba   21.100115 -26.554775  19.721755
In  -29.513559   9.284606 -33.569497
Al   19.236135  -1.983542  36.779097
Nd  -32.084661  -7.969054 -13.703744
Y   -30.179267  15.726512 -11.528130
Ru   20.391208 -28.451967   5.974490
La  -14.654645 -32.436523  10.947060
Si   -5.482467 -30.763172 -32.593246
Y    12.347842  16.141215  21.153345
Tc   16.695163 -21.873133 -13.353916
Fe    7.694285  -6.548553  -7.974623
Yb   43.756584  -6.067421   7.235599
Eu    3.370705  13.464996  -6.688055
Au   -8.619057  -0.799628  10.529496
Pt   15.464734 -13.747889 -34.007149
Ti   -6.617300  -9.566583  38.650115
Ti    2.135344 -27.365036 -12.691366
Ag  -31.680179   8.143853  24.845665
Ir  -15.497322  15.958563 -15.312958
Au   -5.023258 -39.592262  -4.170717
Re   11.757712 -21.124113 -27.635021
Rh   40.161017 -10.323450  13.154490
B    20.519323   9.864320 -30.606407
S   -12.445636  -5.982076 -16.288885
Be   -7.544416 -20.410187   5.449819
Tb   -1.315299  13.549176  12.395827
H    -9.503551   2.777029   1.272311
Re   32.547673 -24.522328  10.563279
Te   -3.699382  20.781999  38.591397
Hf   -5.872135   7.141637   2.079291
Xe   -1.238814  -4.958161 -21.013346
Ni   35.524850  13.530355  12.804159
Nd  -13.685947 -11.943123  -6.825741
W   -13.813452  -2.081935  34.818569
Ne   24.514839  19.692172 -28.680075
Cr   36.312939  24.785510   0.252886
S    11.960092 -13.415022 -20.583871
Sr   30.333433  -6.206927 -13.372540
Ge  -11.227315 -22.164837  -6.909369
Li   12.266349 -28.281865 -28.371719
Hf   12.787814 -20.045792   1.145590
Ir  -20.625820   7.824812  15.971838
Nb   -8.600123 -29.705378  10.138882
He    0.551424  36.362167  21.979559
Te    1.589912 -20.197850  28.474507
Ho   -8.666756 -17.303337 -32.380224
Mg    4.557022  37.269186  21.736557
Al    1.829510   4.058836  39.956936
C     3.213656  -8.498200  -1.222510
K    10.431466 -29.838903  -8.486123
K    -0.585476  11.653705  25.224431
Pr    2.155596  -4.507614  39.268685
Mn    3.875182 -34.002159 -16.472717
Eu   17.149035  11.122366  -2.694590
P   -29.256259  23.423947  -2.530358
Po    9.055782  26.287638 -15.962048
Os  -41.252174   4.417468   2.288432
Pr  -35.336928   5.291494 -21.431016
Ta   11.898236 -12.717682  -1.817794
H    19.239902  30.741752 -21.201393
Tm   -8.421429  18.623841   5.660995
In  -24.129662   9.027352 -12.091019
Be   14.773666 -17.358686  -5.411831
Ca  -40.291318  12.790760  10.443439
Co    3.929951  -7.324906   7.454238
V   -22.835812  -7.412221  10.801989
Ti   -0.076280   3.345589   4.336672
Sc    2.998134  18.583869  19.011673
Po    5.742501  19.661924  -8.573619
Be   43.394792  -9.943428  -8.144406
Ir  -12.813563 -19.387316  19.731214
Cu  -15.521840   0.283843  18.341237
Lu  -23.909200 -10.668639 -31.043675
Nd  -10.672671 -20.801075 -11.567212
Ga   -1.561204  -0.028097  14.600233
Li   -9.418749 -10.347634 -11.781563
Te   -6.685352 -19.277527  17.832465
K     6.958368  25.322656   8.512337
At   -2.765691  18.141110  14.293539
Li   26.044992   8.673667   9.370924
O    18.542357  36.371896  -7.740744
Ge    5.837149 -21.426076  23.968138
Y    -8.452632  39.612928   8.572767
Au  -28.010565   7.584248 -16.741179
Er   -6.669973 -39.267095 -10.435874
Ca    1.032958 -10.360370 -32.573231
Se   21.695266   5.846606  36.685689
Be  -14.778124  -3.446495  19.045269
Zn   40.433491  -4.758396 -13.181201
Ge   30.328335 -20.213886  16.657515
Na   27.293945  13.190004  14.838412
Tc   15.292208 -37.642024   4.080668
Er   -1.346359  33.540634 -25.767089
Sr   -9.799476 -18.511199  16.353999
Sm   36.881592  -1.335338   1.821714
Te   32.278473  26.610143   1.179257
In   -1.785595  11.973633  43.771266
Pm   -3.516358 -37.325234 -14.736344
Lu    7.948130  -4.042647  35.674099
Rh   11.695476 -13.049177  -8.739039
Ne    6.570246  33.766368   2.328638
Se   19.484748 -27.069308  -7.609642
Cr   35.628978  -9.574947  -4.976797
Ir    6.465553  37.668191 -24.190042
Sn    4.099412  23.050721  27.587513
Ge    6.519860 -12.894452  20.295473
Eu   34.750950  13.824301  16.378798
Se   13.941613   3.244194  22.032947
Cl   -5.849659  10.002460  23.303522
Sm  -15.202858 -16.250096  -2.324384
At  -26.278981 -13.295453 -22.352515
P   -13.846635 -29.216422 -22.943392
Te   30.080570  15.279380 -18.321610
Re   -5.923737 -32.385327 -15.192318
Tl   -0.850757 -30.573890  -1.633298
Hg  -25.694751  15.435047  34.314737
B    29.809567  -4.153883 -25.440847
In   34.992238  -6.310207 -14.845680
I     9.750904  37.767146 -18.579065
La   22.012530   1.720417 -18.548750
He   -0.996396 -30.825352  15.433902
He  -19.405816 -32.990613  -5.214439
Rn    0.466282  17.307468  41.517559
Er   12.692848 -25.552645 -19.327180
Se  -39.657430 -19.809855  -4.644215
Dy  -12.277233 -35.599271  -7.546870
S   -19.279058 -16.730717  21.710937
N    -2.536292  -1.419290  23.476378
Y   -14.336897  17.851871  21.965024
Lu  -25.624943 -14.028865  -5.683546
Ar   41.488577  -7.439058 -11.034046
Ne   -0.886660  18.514006 -28.750273
Bi    8.406234 -36.540740  -8.536943
Er  -10.942661  -0.980000   9.732611
Yb  -20.989569   2.524530  32.756383
I    -2.445840  -2.992452 -41.299691
N     3.942351 -13.384874  -7.139065
Rn  -28.607586 -12.987781 -30.087099
Hg   18.373295 -22.320729  16.387023
Tm   -5.522402 -34.881420  -2.011829
Pt   24.369688  19.570500  -1.250533
Cu  -38.877300  16.937538   0.503678
Zn  -11.429277   8.628631 -30.443005
Nd  -34.112569 -13.051317 -13.052382
F    10.425081  15.340015  35.111888
Pr   -4.683997  26.368328  12.063105
Al   16.351698 -22.983273  21.258605
Co  -14.427948 -39.547245  11.672903
La   20.578617  -7.179021  22.359001
Pd   -4.378260  -2.520130  -5.034941
Co   32.360400 -29.915185   8.926612
Pm   32.632564 -13.275177 -26.796303
Au  -35.878053 -21.734484  -1.024331
Li  -38.992225 -17.331439  14.663665
Mg  -17.712268  13.960679 -21.139180
Ne   -9.135124  13.285688   4.021291
F    27.700514  22.037856 -14.495109
Mg  -25.628396  17.694720 -30.452748
Ho   -6.486723   8.366047  34.878051
Al   -4.261164 -25.819347 -16.472701
Sm   -5.053120  29.414563  20.435335
Tb    5.618830  41.942376  11.111295
Na    8.342625  32.955631  12.418429
V   -17.494990  24.633777  18.131672
Eu   15.731686  13.143731  11.983794
Nb  -27.321960 -18.448708   6.679931
Eu   30.384529 -23.287372   0.537158
Ne   19.515378 -25.649963  -6.146226
Ru    4.387526  25.358783 -18.139728
Zr    2.945610  20.425207 -39.178133
Sc    6.902865 -41.114118 -18.290777
Hf    3.198645 -29.347527  18.554977
Rn   15.795130  25.104392 -26.178970
Mg   13.554874  25.681204 -29.297862
Cd   16.979895  26.041850  13.505709
P    27.662841  14.581727 -33.315633
Fe   21.696111  29.781540  20.501348
Pm  -19.580605  25.987252  -3.755472
Ta  -11.742829  17.898921  -8.521944
Mg    2.247580 -42.176912  11.135545
Tb    3.887779 -39.912200  -4.849337
Au   34.938819   6.586494  28.302395
H     7.828703   5.328733  -3.016407
Mo   -4.775655   3.844445 -41.679777
P    -6.240667 -21.443038 -25.195076
K     8.912603  24.643857  12.060061
Ce    9.575746 -25.702597 -10.561213
Ti   -9.376101  -3.081347  31.109752
Cu  -34.069997 -18.785280 -13.866750
Li  -31.334329 -20.273175   8.873399
Li   38.035506   2.900209  -9.319817
Cr   -4.626995  18.217779 -14.858469
La  -30.816761 -20.343475  24.287574
Pr   18.255835  -9.060615 -27.025756
Mo  -23.262422 -10.402513  -3.113441
Ar   10.328132  -2.356592  -6.758683
Re  -25.198418  -8.161628  34.730508
O   -23.039789   7.374090 -21.927588
Sb   16.930576  21.815275   9.457249
Lu   26.371380  26.608508 -22.618872
Cd  -39.834220  13.718694 -14.007958
Cl  -32.220815  11.347124  29.251578
Au   10.417130  -7.809149  24.426106
Y     2.498775   4.135651 -25.293807
Ce  -29.665283  14.622107 -16.540217
Al   15.300475  32.756388  22.906588
Mo  -23.337384   3.203873  -6.233490
Sb   14.445894  36.741604 -13.686347
Rh   12.287451 -31.240706 -26.120506
Si    8.256779 -25.932547  35.786470
Li  -18.354845  13.629948 -22.678923
Tb  -21.777021 -17.768558  -5.904934
F    19.665208  -5.322692  25.246139
S    -5.558898 -13.078273  -6.853672
Ce   -9.087131  23.943495   2.103804
Re  -15.135083 -19.151715 -16.756303
Nb   11.054287  15.820739 -18.139889
P     2.395684  32.727282  28.738757
Cs  -10.146491  16.682884  -9.050302
Ir  -13.430158 -34.022090  -9.566620
F   -22.465785  29.575773  -5.151011
F   -13.316129   1.754891  -6.532721
Ca   20.111316  23.425181  -8.322169
W    -7.303243  28.220368 -16.325038
Os  -22.873642  -8.253449   9.571586
Kr  -13.690004   1.309456  22.323579
Ag    1.871115 -29.306746   7.065119
Sb  -22.523893 -24.890767  21.226750
Pb   13.738562 -20.766388   5.140944
Ba  -16.816942  20.823593   3.555875
Se   14.092924 -14.333229 -14.439176
Tl   38.562363   6.748269   3.073312
Pr  -17.330196  21.504866  15.266109
Sb    1.415001 -41.906139  -9.019644
Si  -11.888975  -3.722423 -15.286890
Na  -13.765724  24.486034  15.763353
Cl   13.032935 -29.720926   8.095331
Xe   14.095755  32.088929  28.588855
Eu  -12.319669   7.407373  -8.825885
Ti  -14.750911  14.378746  18.308679
K   -25.541573  -5.749369 -11.178253
W   -12.974201   8.269507  16.954020
Ba   17.973530 -11.848559  -5.487599
Ta   20.438375 -30.050434  15.223758
Er    6.173906  24.103467   7.707382
Cs   -0.906789   6.143664 -27.539328
Fe   14.217700  11.064601  34.725905
Dy  -43.139809 -14.763967   0.356026
Cl    3.378423 -26.222804  12.254002
Kr   13.528306  -9.853696  34.194521
At   -8.045296   2.879914 -27.181522
Sm   33.803388 -19.494486  -8.157668
Y   -20.453633  33.128786   4.477086
C   -14.340085  31.514077  19.914636
Zr  -15.471533  26.777759   3.938627
Kr  -33.918208  -1.147429  20.082163
Te    5.367272  20.856722  26.092213
P   -26.730196  19.328274   8.107889
O     4.446635  35.394306  17.726367
Tm   24.676307  34.329186  11.455454
Mg   29.010380  11.619197  -4.711143
At   24.092494 -33.150714  17.590244
Fe   -7.336055  -9.656166   6.526077
W     1.258235  -9.327891  22.296964
Rn    0.625622  -2.203780 -35.822313
Bi    8.972344 -37.302522  11.448999
Pb   14.870135 -19.470186   8.542047
Sn   -1.469921  23.269997   2.942524
Ho   10.775667  -7.704261 -37.098554
Pb  -15.111947  11.329547 -30.797412
Ni    7.840993  -7.319993  23.085222
Gd  -19.085236  18.053590 -19.732124
Pd   16.978711  23.948025 -29.136110
Nd    3.220960 -24.851402  11.095877
Y   -27.800263   6.789768  18.939468
Tl  -43.379247   8.763981  -1.402708
Kr   28.911698  -7.418341  22.188148
Ar   25.037072  12.970031  10.645523
Eu  -12.909292 -11.229424 -41.138661
Pb   -9.784037   5.499479  24.348757
Cs  -30.424645  24.998297   1.521943
In   33.893012  -9.112221   3.924839
H     3.852460 -40.637223  10.289474
As  -12.671077 -21.362697  34.734439
Gd  -18.712660 -25.799165 -24.378390
Mg  -16.183357   0.542689 -23.444195
Sn   32.297468 -30.840232  -9.479162
Er  -23.837054 -28.708758  15.151587
Rn   12.692266 -41.416933   9.143395
Br  -13.811779  -1.021440  21.294300
Ni    3.560824  24.290017 -24.550989
Ti  -27.209415  11.816037 -12.172763
H    28.851534 -18.805922  14.036025
Ne   38.727589  10.281146 -14.773202
Dy   -5.238421  30.586453 -15.838488
Gd  -12.467369  -4.665508  -0.211026
Ti    9.259288 -39.008233  19.576117
Si   32.218713  -1.623203 -17.064820
As  -23.566637  -4.483255  24.723105
V   -30.218421 -26.574290   3.077999
K     9.539070  35.944844  15.284247
H   -42.551138   1.578544   8.839114
Po  -32.618908  -6.910535  14.789716
Ca   -0.028196  -2.385776  -3.510945
Sc  -10.731473  12.644286  34.827397
In   33.274672  -7.780339   2.919906
Sc  -28.137206  -2.343501   5.179076
W    30.853378  -9.043172   6.680891
Sm  -11.781961  22.668910  27.535372
Cl   23.950488 -25.328589   1.220893
H   -14.417543 -29.327156  -1.491732
Cu  -13.674799 -19.991159   0.387280
Pr  -18.263540  -1.696205  -2.204141
Re    2.364844   0.772916 -30.465082
P     1.960497   9.084545  40.321956
Cd  -24.940791  30.033288  11.118803
In   -0.644489  25.010518 -14.661965
W   -13.117286  36.261770 -15.610254
Be   16.677819  31.610126  11.518331
Yb  -28.453595  28.240954  -0.441425
Li   23.962544 -16.111727 -12.807404
Au    1.156421  -2.736631  31.210050
At  -33.128522  -5.033640 -13.991350
S    11.723816  -5.025005  18.162534
Ta   10.454190 -10.405069 -23.296723
Tl   33.768941   3.255836  13.945316
Si   15.021998  14.273641  34.883381
B    22.864556   6.815834   5.219915
Br   -9.750969  16.022429  14.749295
Dy  -31.957433  -2.726241   5.506233
Ge   17.706971   0.681435 -39.432149
Ir   38.399965  -4.661928  21.652967
W     3.775466  21.013622 -16.758269
Zn   18.731248  22.184319   4.165741
Sn   21.194768  -0.167168 -19.608227
Cs  -19.501506 -14.781241 -10.332965
Po  -16.177799 -18.863664 -38.249723
Er    9.227985  -8.398649  39.722425
Ta  -15.773347 -13.327300 -22.936007
Bi   13.666642 -17.185415   4.755383
Sb  -11.970049   9.035595  17.968727
Mn    8.919947 -25.612823  25.899971
C   -10.695454 -16.505811  10.694435
Tc  -25.559544  -6.148883   6.390851
Ba   28.233445  -7.961920  -9.833010
Mg  -36.269580   0.313616  17.172980
Be  -12.558564  -8.415448  -9.457880
N     1.880485  28.019805   4.718691
At    2.727370 -42.717019   6.176123
S    -8.224101  20.328317  19.988163
Tl   18.341450  27.688761  -1.367025
Tb    3.978193 -10.846253  35.451218
Cr  -16.623549   6.621102  26.940150
Zn   18.798273  11.809231  35.435435
At   20.347567  11.337119 -22.269896
Dy   11.228525  11.074454  18.457570
Co    2.245183  -1.880863 -24.613955
Nd   28.099573  11.745589 -12.935123
Zr   -0.235287  37.695084   9.209301
Ba  -13.867878   2.664412 -17.704614
Rb   -9.038877 -42.307731 -14.299838
Pb  -21.025187  -2.281660  29.691314
Ar  -24.994174  -6.710071  23.056062
Co  -15.619115 -18.250224  18.270620
Sr   32.098748 -25.310443  -9.877372
Eu   11.628999   0.664931  38.980814
N    19.852623  22.535337  -0.937652
Ge  -20.113083  29.070905  21.095924
Cd   12.089252 -31.255547  13.711583
Po   -3.245203  22.440233 -21.382448
Po   27.910988 -25.516709 -10.144457
Ga   -5.282073  19.178363   6.020981
P   -30.405059  19.501054  -5.003606
In   40.093291   9.256551  16.625810
Os  -13.183701   9.515369 -17.813768
Ca  -19.145677 -21.070040  12.024009
Cu  -18.514129 -15.227253  -2.533194
Sn    9.961210  11.460884 -10.136218
O     2.490100 -11.898492  -1.768330
Y    27.304902  -6.410738 -10.554745
Ho   19.895383 -22.949329 -14.260064
Ba   33.292698  16.019360 -20.653732
Ni  -26.402765  17.948910  21.121128
Ar  -10.827117 -11.564282 -37.771393
Tm  -10.657882  36.299508   2.653457
Tb   12.403761 -25.000726  -9.627802
He  -37.596753 -16.220252  11.324991
Li  -28.107198   7.498608  17.024790
Kr  -33.271549 -28.431887  -3.742154
S    24.964378  -5.824712  11.117944
B    16.876242  -7.079208 -24.155344
Nd    1.780680 -14.454735 -28.528255
Kr   18.938122  21.694800 -26.955160
Li  -23.795341 -18.668147  10.882746
Sc   15.514300  12.774514  33.262954
Xe  -28.460256  -8.472245  -5.865801
Ho   -4.864690  17.368402 -40.166694
Rb   23.658046  28.432050   3.402394
Si   11.824705  37.907346   8.929787
Nd  -27.820513   2.334230 -28.969471
Pt  -11.908689 -36.941645   6.758486
Si   -9.913921 -13.723150 -41.512888
Zr  -35.639089 -15.336953  22.905408
Ar  -14.186006 -16.279047  36.395349
Sc    0.560259  10.910415   5.567639
Ar  -26.713351  -2.987191 -32.957748
Ti   -9.402669  -7.894003 -36.323101
Hg   27.012855  16.073900 -13.847746
Ga  -32.179151  -8.428953 -28.508048
Ne  -17.064156 -35.293609  -5.174015
Ne  -42.811099  10.144553  -2.181076
Co    3.521166  25.925118  11.437407
C    11.415066 -37.975844   7.231476
At  -22.735079 -32.076680   7.915193
Te   33.886796 -21.474823  -7.893180
Ce    9.384491  -6.844205  25.159618
Te   -3.650853  20.106015   0.935101
Eu  -14.969241 -12.288270 -27.429237
Hg   -4.769654  28.194711 -13.652746
P    -4.265594 -28.041533 -30.801258
Dy  -33.068704  -1.528793   3.325990
Mo  -15.043938   9.621947  23.036977
Li   25.956725   2.695761   4.386071
Nb   24.026881  14.925656 -13.314904
Ga   32.326346 -13.555979  -5.191721
Rh    6.460084  -1.502186  12.086289
Ag  -28.293122 -14.680448 -17.085417
Gd    3.292549 -24.712142 -16.843697
Pt    1.263550   3.859658 -44.388034
W    -0.932048 -13.299356  37.502639
Sm  -24.910071  25.042987   6.558399
B    16.502839  -0.445594   9.326681
K    13.919052  -5.637197 -29.785705
O   -37.584849  -9.339824   5.315541
Br   10.670911  10.143059 -27.619127
S   -12.512225 -19.539214 -10.511761
Lu   10.301769   3.826970  41.301903
O    19.415547  16.473179  -9.362498
Ce   16.892711  10.660679  21.234249
Mg   24.257898  16.055442  18.742743
F   -26.850215 -18.974110  -5.386413
Rn  -22.987840 -24.268309  -7.446972
Zr   28.473393 -28.800138 -16.866482
Hg  -43.380528   4.053537 -10.983980
Rh  -21.685506  -4.236510   9.180557
Ta    8.651209 -29.535740  -5.855039
Ba  -28.675257   5.056481  -6.388953
Pd    6.512660  -7.466430  -4.080549
Se    6.394833  -3.781101  38.684506
Er  -29.524920   0.664133   6.371775
Ru   21.724389 -18.926208  27.577289
Al   -4.263098 -15.458211 -11.285923
Cr   -4.660067  22.467250  -0.886343
Pd   -3.899373 -18.672654   3.919045
Bi   36.423791  15.483951  13.239805
Ba  -43.298089  -3.552520 -12.705409
Zr  -22.949604   1.799833 -39.044116
Ni    0.143478  34.948682 -25.906605
Nd   22.304417  29.879426  -3.285145
Zn  -29.726072  10.554443  -6.182389
Yb    5.563625  -0.556871 -24.890177
C    43.860530  -7.010500   4.925889
Ti  -11.160468 -28.568222  10.143139
Dy   13.180139  15.985048  36.403114
S     1.148293  31.542153  30.500277
Nb    4.501950 -14.306075  27.559688
Rn   38.378749 -10.521833  -5.906026
Cr  -36.088702 -16.076043  13.015129
O    19.932010 -16.417949 -33.194904
Ge   -3.396635  14.237911  31.801202
C     2.684681  23.809393 -14.076519
Ni   18.224172  11.115788 -33.815108
Yb    7.168056  41.269347  15.994072
Rn  -21.628386  10.332945 -38.728915
Xe  -17.600326 -12.691391  32.997601
Al  -39.952758 -18.553006  -0.483896
Pb    6.339816  33.329545   7.191528
I   -30.032993 -11.458944   4.611637
I    12.757397 -12.024784   9.484864
Mo  -25.248953  35.799922  10.838641
Mn   12.954171  20.742139  33.588994
Sc    6.418468  -9.778020  -7.906018
Er    5.542838 -29.189289 -18.811624
In  -16.646407 -33.250882  -9.098201
Pr   27.659957 -20.663487  19.592942
Gd    5.148877  42.028786   5.202774
Cr    6.507755   2.624926  25.794905
Te   15.041976  24.331198   0.761851
La    4.442963 -19.534411  27.525930
Br  -15.832621  -1.112028  38.854522
Lu   14.244730 -12.937431  -6.926664
Pd    6.624975   9.823938 -28.995608
Kr   24.368893   9.202986  23.484422
Tc   -0.665318  -6.598487   0.129696
Li  -11.887907  28.199689  -4.376923
Gd   22.274600   6.491182  25.485468
Se   23.606540  -6.953303  -5.240431
Ca   24.371553   8.732138 -34.269179
Y    21.789344 -22.271244  -0.154350
S     6.132391 -14.959830  41.082943
Fe  -16.442462   3.322706  33.465677
Mn   35.649544  14.789188  22.134618
Bi   -3.636915  35.878795 -22.609854
Br   -9.658463 -37.291149  17.469802
Ne    8.430842   7.275611  29.392567
Po  -38.342312   9.546989 -14.105626
Mn  -13.798944  10.251550  13.721353
Y    27.619442 -18.224874  13.281172
Xe   14.556063 -11.535752 -41.091238
Os  -22.485851  -3.476102 -30.507270
Nd   12.146529 -36.122956  22.624966
C   -22.215905   0.278186 -39.725248
Hf   15.140454  22.465613  13.656062
Xe   17.490902  -1.206000  25.690290
Pt  -23.163534 -17.874933 -15.040352
Ta  -23.745125  -1.660941  -3.053295
Cd   -8.669957  31.274562  -8.599531
Pd   11.426655  36.187626 -18.514128
Pr   11.512831 -34.273271 -22.089008
Au   -4.938775   4.791152  44.122909
Pt    0.139880  15.321376  -2.555876
Tm  -12.283115 -12.455648  12.383591
O     0.350032 -28.687790  -5.012294
As   21.889354 -20.232359   3.220486
Ag  -23.708161   5.874005  30.277010
Cr   12.849714  29.034623 -12.259340
Li  -29.082691  29.460169   4.222279
In  -19.232376   0.431126 -21.018067
Co   31.787255   0.477721  32.487492
Ca   -2.449468  21.417535  38.346121
Se   21.512964 -29.276588 -15.010588
Pb  -21.270072  18.476890  35.062288
Pd   35.384832 -21.979453 -17.895397
Tm  -14.261134  19.295926 -33.447534
Ga   12.114392   3.706562 -25.281232
Te  -15.097132  -8.242045  15.789743
Lu   21.321907  12.327360 -22.432646
Sc  -33.623238  22.855868 -17.790477
I    -3.740238 -25.704035 -24.191332
W    10.581138 -11.369717  13.103249
Ni  -29.604064   6.360638  22.563104
Ni   -9.791547  -5.037736  -5.449264
Ar   -6.031262  26.987443  34.603168
Ru  -27.670526  16.781060   8.578639
Nd  -23.792398 -25.025651 -12.358615
Er  -30.101438  22.188358  -5.979401
Mn  -18.115795 -20.124271  36.189081
Po   25.986120 -12.989653 -19.549216
Os  -18.691416  -1.269763  25.989720
F    -3.730054  28.710753 -16.948262
Br  -21.313175  25.854125  -5.902508
Sc   14.403350  16.009874  14.535973
Cs  -37.184479   4.264271 -23.362883
Cd  -26.604637  -4.263594  -8.918549
K    16.479733   3.497857 -32.504720
Ho  -11.529846  26.015450  -8.647005
Fe  -24.272478  -0.857134  15.503510
Co   18.966749 -20.710157  15.860752
Tc   22.248636  -4.457372  25.656804
Y    14.723480  25.903583 -27.536325
At   28.973743  19.912697   3.954528
H    23.949928   6.896601   1.421610
Ca   -2.548945  -4.973796  15.640685
Pb    3.750912 -20.435507 -21.485059
Lu    5.023197 -14.269111 -39.941785
Li    2.869933 -12.136187 -18.459286
Mn    1.347115  -1.898472 -32.206816
Mo  -10.733800  -6.194073  16.152023
Mn   35.559594  25.584186 -11.901292
Co   21.882722 -33.777417   0.634487
Rb  -17.787868   7.708399  11.953045
P    20.567306  31.510450  -3.910482
Bi    3.778736  17.069675 -19.491213
Rn   -3.572290  -2.155113 -25.384154
Kr    3.676058   0.396214 -32.904421
N    -7.540654 -13.163067 -34.590993
Tc  -20.314316   8.522614  -5.366111
He    2.112806  21.481667 -16.549450
In   -7.805053  37.480026   5.656071
H    -4.327123 -18.620314 -14.362197
Nd   -1.047516 -40.622600   3.690801
Li  -26.712871  11.527274  19.827482
Y   -16.287002  -7.351067  20.571736
H     1.529924 -26.189755  -6.046159
Zr    1.329822 -18.952839 -19.062596
H   -13.630887  -6.087788  35.632910
Rn   30.653521  -2.770184 -13.611433
Nb  -22.503068   4.587481  -4.733921
Kr   -9.487908 -37.013088 -10.897288
Tm   10.225123  18.038564   7.169942
Br   25.240350   8.663214  25.368278
Nd   26.846168   4.076437  -9.084264
Mn    1.893548 -29.067185  18.634056
Er    0.189994   9.868787  24.455636
Fe   13.574581   0.251999  17.096112
Mn  -20.924798  19.378765 -14.764747
Na    9.946046   5.707945 -37.802506
Ba   -9.889858 -11.003598  38.266929
C   -17.884310 -27.245277   6.258756
Hg  -17.840956 -20.928841 -24.058264
Bi   15.426575 -10.769375  21.988780
In   -7.004263   3.391238 -22.513825
Hg   27.473902  31.314445  -0.170740
In  -38.502924  17.412794  -2.967938
K    10.624503  -7.908659 -15.704385
W     1.906917   3.240214 -13.043953
Dy  -11.098520  10.745367   8.069759
Ga    3.618015 -10.520893  31.424157
Lu    4.492556  25.880791  17.423931
Si   23.938736  25.190240  25.155953
Gd   10.934717 -14.910605 -33.953977
Cu   40.094351  14.534541   9.292382
Ru  -24.827272  19.823577 -19.609278
Be   41.717354  12.019278  12.691209
Pm   -2.622112   1.817070  31.258850
Al   25.652483 -10.463473  20.653990
Be   41.771521  -7.742529  16.755237
Zn   17.450032  -2.014916 -22.079586
Be   -0.254652 -26.257530  -9.797895
Rn  -10.370767  33.605610  11.120417
Tm   17.149386 -19.506987   2.561662
W     9.658446  20.526863  -8.254889
Y   -19.449690  31.359529 -16.007359
Rn    2.938807  12.999124  20.509269
Tc   13.350153   4.392124 -32.331034
Tl  -16.750164  -0.327100  26.119086
Se   15.505815   6.132473 -14.278935
Mn    6.945579   8.064675  16.195447
Os   12.127903 -20.630397 -18.384614
K    23.202861  -6.910093  16.580253
Tl   -4.425874 -40.380479   6.287369
W    28.584214 -25.689852   2.041480
Po   32.070514  12.211918 -30.149256
Mo    2.085397 -10.295142  -0.360509
I    15.278996 -32.386041  -6.785460
Br  -38.336337 -11.036313   1.583410
Pr  -17.425232 -34.898524  -1.103243
Ne   -1.536896 -25.468865  13.915830
Rn  -20.082054 -18.448782 -23.727729
Tl   12.005349  14.316438  13.804766
P    -8.645466   5.779562 -32.168757
Rb  -16.584983   2.688238  29.644754
In   19.726736  24.218723 -24.315624
Rn   37.235620 -17.799292 -12.773013
Pr   -5.229412 -17.660745   6.623324
Pr   25.678808  12.748668 -17.634372
Ce  -35.579310  -7.432911  19.485189
Cl    4.608703   5.249459  23.950290
Nd  -15.964701 -20.955131 -23.261982
Tm    5.613914  31.982072  24.005084
Tb   12.235634 -14.617090  -7.561270
Hf  -24.275623  26.527019  -1.736154
Sr   22.708378 -29.432939  -6.960112
Mg   24.585836  27.980653  24.678143
O   -16.201102  23.734421  12.413747
Ga  -11.845026  25.866443  -1.371285
Na  -22.070234 -20.643028  32.905839
Pt   -6.276502  17.427481  18.351913
Se   -6.498380  44.222033  -4.442957
Nd   -3.636863  -1.276764  43.648751
Mn  -19.842748  22.850992  18.007301
Zr  -23.350280  12.012684  -9.071145
Ti   25.335255  13.029326 -11.360877
W    22.121547 -10.456857  18.466228
Cr  -16.766296 -14.423974 -39.148742
W     8.205026   6.115039  17.360672
Nb    9.007952   8.703003 -42.014911
Ga    0.263451  -0.348710  10.528910
Ge   31.509397  -4.821975 -15.637759
P   -39.293387   1.639874   1.735597
Si    2.015924  30.104010   8.643582
Pm  -25.478559  -9.194022  -5.641108
Ag   30.715383 -20.580572   9.761968
H    -1.702977 -15.284173  19.294101
Bi   -7.769003 -32.908672 -21.476316
Ge   11.394335 -36.709382 -14.321521
Ge  -35.676099  18.044066   5.487775
Os   20.731695  28.541326 -24.168699
Be   26.567989  27.853697  -3.317935
Lu   25.050760   2.607611  24.833961
Tm    2.925164 -14.966315  -6.396489
Li   -7.461532  23.884539  23.506972
Ba  -16.720905  20.760022  34.249679
Ga  -36.388665  13.350116  -4.546994
Ni  -17.111604 -25.784620  32.668370
S   -34.009802  16.621874  20.796501
Kr  -37.584287   7.680134  -2.158397
Hf   -1.126437  25.874779 -30.794132
Xe    7.201033 -26.711116  19.229236
Lu  -27.880652 -18.249395   2.667731
Ne   -6.594694  18.755400  -0.599133
K    -6.059753  29.310533 -27.388055
Co   17.206403 -18.732960  15.391514
Ga  -22.850423  18.482677   8.872117
He   -9.784536 -12.013232  22.968060
Ta    5.623504  12.228551   9.719318
Eu  -19.906378  28.022476   5.825366
Dy   21.561656 -12.330734 -27.616319
Pb   21.895448 -31.016120 -24.361485
Cu   34.791084   3.656563   2.127881
Y   -12.256003  -9.123088  -4.116881
Cd   -9.122675  22.231092 -37.305338
Rn  -17.159179 -30.176529  -5.719543
Sr  -12.969168 -30.294152  26.164614
Ir  -27.452639  -6.573199 -20.762986
V   -16.745332  -5.991072  19.826948
Zn   19.550883 -16.980912  37.406637
Gd   16.023492 -31.943817   0.952120
Pb  -33.091047  16.238885 -20.370687
Mg   15.030664 -16.554876 -14.308450
Xe   -7.741090 -16.338551  -2.380903
Ne   19.552901  -1.120490 -22.953211
H    28.154516 -30.700325   6.081486
Ar  -34.347430   3.042508   4.364113
Eu    1.965023 -29.442885 -12.148947
Si  -12.579493  -2.632257  -3.708097
Rb   33.621469 -26.880427  -7.463581
Si   11.513490  20.940140   4.633196
Eu   17.479338  17.373417   9.690059
Rb    9.035929  28.914585 -32.855471
Te    9.486880 -16.843504  24.180445
Cu  -14.723418  -8.833754   0.167071
Rn   18.759192  10.756994 -25.115524
Si  -13.509030  29.179926 -22.663023
Ho  -32.851370 -26.736790 -16.293830
O   -12.138380  19.421894  22.193648
Rn  -19.913929 -12.657801  19.677846
Ge   -2.932239   7.563747  30.054563
Pb  -12.780431 -16.691020  26.122942
Pr    6.323157  14.095262   6.152205
Fe   22.917518 -19.958071   7.455736
Be    6.199858  12.030602  39.874729
Mo  -33.891960   6.288449  14.922190
F   -30.937098  16.184032 -18.743885
Cr  -26.244125  11.401990  21.896025
Al   -3.496114 -38.101785 -12.984554
In  -25.689346  25.250459   9.469102
Cl   -1.753272  16.604183   9.199990
Tm  -17.020477  15.676028 -10.721716
Br  -33.628847   4.076307 -27.661941
Tb    2.794967  -8.785499 -20.560409
Ca   -7.989276  35.661844  20.323466
I    32.006844 -23.069029   3.566231
Ga   -3.971665  12.544841  -9.265566
Os    0.814442  -4.343646 -21.973281
Tb    9.266504 -28.260045   1.880385
Xe  -16.232302  -3.652068  31.212074
Sr  -19.980678  38.090735   1.469358
Mo   -1.518669  27.461093  -8.286624
Te   -7.817305 -11.004017 -24.206806
Na   29.999809   2.671249 -11.167447
Ba   11.321147 -37.927121  -6.489424
Tb  -11.846401 -14.906771  -0.378948
Dy   -1.036988  39.973544   3.144490
Pd   43.347860  -4.558972  -5.315859
H   -29.070160  -2.236825  28.380587
Fe  -26.842473  24.523659 -27.046260
Mn  -23.296963 -30.956571 -10.122193
Au    4.508075  34.937294 -27.553890
Eu   12.086604   1.103509  29.886034
Si    9.359056  -8.825181  11.777648
Zn  -10.349803 -35.780792   3.458278
Sc    2.286095   1.683981  27.351927
Dy   19.392175  15.073161 -19.173278
C    21.989331  18.491590  28.517021
V     7.934109  21.800015   9.027175
La   31.894735 -22.059510  -9.935279
Be    2.313404  21.784817 -18.754317
Rb   12.465018  24.025549  13.033705
Rb    4.154122 -13.361649  13.182068
Sr   -2.897930   7.895590  -1.863931
Yb    0.313576 -29.433528  19.308305
Sm   29.795871 -26.480955   9.645506
O   -37.412312  -6.998189  -3.518646
Na   30.055477  -6.958654 -33.111584
Y    20.986787  23.059628  -8.055485
S    40.541549   0.619939 -12.499334
Ga   -2.203526  -3.968333  -9.357177
Se  -26.565050  24.499288 -19.080967
Dy   24.225638 -24.619105  20.846029
S   -12.427110   9.180557  -6.782891
Ca   -4.783386  20.498147 -10.634930
Tm   -1.567192  24.154293  33.768286
Ge   23.828870  20.297111 -10.644817
Ge    5.218288  34.056338  23.277548
Ga  -27.563264 -21.002090 -17.189549
Tb    4.875170  -3.714670  25.247552
Br    8.846830  19.281665  29.227764
Er    6.930952  37.425638 -10.824432
Se   42.233232  -3.261789   6.211394
Hf   38.591898 -22.518819  -5.214605
H   -30.803349  18.843986  19.906997
Al  -12.575600  34.420862 -25.540837
Se  -10.014694 -30.575101 -12.181563
In   16.003344  27.210305  13.871451
Ar   10.216446 -13.694238 -34.599489
Nb  -14.193861 -17.389656 -36.815397
Sb  -33.439904 -22.518314 -14.765776
Eu  -12.813519 -13.337465  30.011123
Dy  -23.143261 -34.358972 -16.881796
Pr  -28.625893  23.160651   0.043078
I   -19.100651  26.813480  28.941593
He  -23.941266  31.549736  17.544787
Be  -32.898921 -10.224704  23.735699
Ne  -27.859143  31.290355   4.030732
As    2.276717   0.327019 -15.956749
Pm   12.591386 -33.682804   5.478797
Nd   -5.387655 -35.527468  -6.000490
F   -23.148244  -0.069153   0.781565
K     0.146724 -10.443027  22.826707
Li  -29.471627  18.386728  11.287850
At   24.659509   5.002848  37.188930
Tc   26.579834   4.743248  -5.761007
Yb  -12.093289 -35.145478  12.950320
Fe   19.890292   1.840064  13.113460
N    -8.863022  -2.354095  27.073415
Re   23.394457  14.152841  10.841952
Cs    1.619412  -3.777985  15.973765
Pm   28.549698 -13.382938  -5.594922
Bi   18.981015  -7.194299   0.420630
He   -0.561291  17.727736 -32.201969
Ho   41.235820  -2.221970  -3.073455
Na   25.918013 -25.655691  23.202262
Nd   -8.379036 -16.102746  17.738817
At   35.994649   4.785570 -12.816707
Zr   35.141921  -7.135820  -1.288465
Zr    0.273798  22.547950  16.617270
Ne  -29.178909  19.733904  21.193526
Sc  -22.316191  33.372293  -3.606654
Pm  -24.451959   0.716981   0.490755
Cu   31.667274 -20.984804 -12.645009
Si  -18.690219  -5.102094   6.406275
Au  -30.888035 -21.739638   0.950605
Pd   17.141364 -27.697077 -27.407845
Rh    7.498866   1.214383 -33.649323
Hf    4.232926  17.296025  22.134679
La  -35.952687 -19.720834  -4.851568
Tc   23.425389   0.919945  19.871828
N    -5.516707  21.603808 -31.091300
Mo  -22.390053 -26.361404  -0.123194
K    37.123273   2.916061  -7.869367
Mn    5.838787  21.832870  35.784347
At   15.217985  39.090937  14.119488
V   -37.262022  -0.981624   8.448648
S     6.634725   2.826515 -43.843582
Na   41.913249   3.374840  17.166406
Po    1.604646 -18.237964 -14.075043
Rn   -0.631267   2.036097  20.377739
Cs  -34.321134  -5.300454  23.419417
Nd   15.067130  -9.388734  41.950426
Se  -20.443370 -26.127213  -7.027560
Rh   -1.109389 -14.849652  12.031920
Tb   25.445423 -25.116115   4.142780
Ne   14.916789  27.403019  19.055211
Ar  -26.615220  25.018332  16.394716
Pb   28.715249 -32.644508 -10.831226
I    28.787039  23.013643 -18.088801
Sb   14.990251 -39.256248   2.523667
K     9.531454 -17.771724  19.809100
Ho    7.699699  21.951787 -14.955823
Si  -12.371799 -14.369372 -19.720499
Se    0.143744 -20.000926  30.364739
Po  -16.470405  34.495990   6.488351
Pt   13.668935  18.130071 -37.802023
Mo   -9.916282  33.175699 -20.851202
Kr  -12.268296 -14.565618 -29.102609
Mn  -16.450629 -26.474911 -23.214634
Kr    7.113343  17.987628  28.103336
Sb   11.307614   9.995173 -11.869519
Xe   33.770403  -8.580715   1.751660
Nb   -4.514989 -18.673849  39.329970
Rn   16.446306   4.972730  30.213847
Cr    4.052249  -0.164552  30.412792
N     1.490171   1.758335 -28.890722
P   -30.007555  18.188917 -12.021202
Hg   36.462132 -18.277457  19.382503
La   12.105151  -2.395640 -42.592614
Hg   -4.829966  14.853165 -25.688126
Nb   -7.148545 -34.092739   2.522069
Mg  -17.516308  19.774758  30.336556
La   22.948985  22.681854  -2.400151
N    15.024635   9.460455  31.453041
Cl    0.052850  20.689887 -12.045958
Rb  -39.541747 -16.131212   9.184632
Rh    2.325773   4.189885   1.075125
Ni   12.913754  21.459375  26.722633
Pm   -0.206150 -27.308833   7.600220
Sn  -18.687748   8.675726  30.735570
La  -16.994417 -15.923354 -15.373539
As   -6.300393 -17.998579   4.652630
Ir    1.610370 -30.623479  -7.914853
S     0.473441  -6.066633  44.599394
Xe   17.152359  23.734534  14.689522
Gd   24.438160  12.037827  11.137802
Tc  -15.911108  -8.017539 -26.081797
Os    0.261368 -34.547263 -10.512227
Tb   21.147580  35.124904 -13.802961
Au   20.983643 -29.796118 -25.556398
La  -23.970557  24.970092 -20.897392
Yb  -32.378408  -1.732904   2.213264
Rn  -20.935984 -22.974100 -32.775445
Mo   -0.015111   7.360877  -1.732032
Cs  -34.426993   9.396368 -13.051773
Cr   13.954350 -10.889760  26.834210
Ba   25.622472  10.600227 -15.881284
Ge   23.457087   6.849946 -29.187037
Tm   30.675876   2.059851  24.880898
Sc   -6.492233 -24.921588   1.267275
Br   23.972719 -37.300027   4.322814
Cu   21.692613  -0.122128  27.617948
Ce   10.453806 -37.603428  12.846625
At    6.484253  26.501823 -21.239099
Pm   21.859626 -31.729641 -15.023497
B     9.186427  -5.055192 -16.533123
Ag   30.439085   3.550558   6.919268
Rb    3.275166 -37.656449 -12.256901
Cr   19.426130 -10.690759 -32.979736
N   -21.991132   4.803086 -26.917253
Rh  -26.582909 -23.893970  10.074497
Y   -20.921108  -2.066581  38.404190
K   -30.723470   3.431140   3.634033
Gd   -9.323828  36.251986  19.571098
Dy  -19.082563  23.883213 -31.011664
Pr  -22.133464 -13.777192 -32.503730
Zn   14.852866   1.291383  28.075805
Mn   24.968497 -24.096702 -14.752648
Hf   30.289016   3.156382 -17.075898
Mn   10.542446  37.972035  10.216531
H   -12.682733 -13.438325  24.984234
C     2.596661 -13.046044 -32.444294
Ar   12.531029  14.676800 -27.421685
Sn   -0.521405  -0.341897  37.316120
Sr  -28.948207 -20.494534  -2.850311
Ta    2.025211 -11.917359 -36.943008
Ar    3.202194   4.837588  43.668351
Cs   -8.524579  22.319513  21.868326
Cd   16.493258 -29.276601   8.925376
Mn   -3.588303  27.507059   4.421748
Ir   -1.664591  17.181932  35.048872
Ni   42.934973   1.399743   6.682258
O   -14.768310  -6.456613  19.437631
Sc   29.602701  28.863549  12.758146
La   28.319879  10.024008  27.712785
N   -26.890230   2.322429 -34.723801
Be   -1.675026  -9.144457  -6.625207
Tl    7.078253  23.035750 -25.109290
Mo   -6.177505   4.185549 -38.645448
He   25.811399 -30.249849  -8.087842
Tl  -18.912385  17.567698 -10.578892
Bi  -18.218938  26.533625 -14.590527
La  -22.984367 -29.060669  15.448475
Hg  -17.500773  23.028428  -7.640109
Co  -24.967772   9.446210  -5.261053
Rh   22.010366 -36.218314 -12.959297
Xe   19.144852   6.592361 -24.050613
Mg  -22.227733  13.513589 -23.532508
Mo   -9.877459 -33.955539 -15.951400
H   -23.299287   4.765878 -29.515514
Cl  -15.585050 -36.101973 -11.653569
La   33.780146  -4.914977  29.778600
Tm  -11.835551  21.375586  -2.011672
Ar  -23.476948  -7.504592   1.632918
Hf  -30.294868 -15.471017  18.416774
Sb   32.326870   2.828456   2.324334
Au    6.647534 -12.536395  27.190898
Ca  -21.118919  20.523197 -17.445474
Re   28.780257 -29.313665  -6.134696
Br   21.035912  10.481053  -8.492483
La  -27.829469 -20.197361  -2.081019
Ti   15.138653   3.530445 -13.798821
Rh    6.437677  22.081311 -34.485930
Nb    0.769296 -23.666127  19.937842
Er   -2.178267  11.767850 -18.013297
Mo   17.147838  31.900769  12.736202
Pm    8.605151 -23.932313 -34.831215
Li   10.261251 -25.508640 -17.404088
Tb  -28.951887 -22.528084 -15.807639
Ge   -1.871776  10.832506 -35.438687
Sc   -3.310493 -15.790049 -27.435233
Be   -6.242740 -44.639914   0.812136
Rn    2.224904  29.987526 -12.801763
I    -5.553207  23.373684 -18.908757
Sc   10.759431 -23.375828  34.382993
He    3.490472   5.519335 -27.551775
Pt   -0.604741 -35.820747  17.744405
Se  -11.533544  30.525604   4.980231
Eu   12.419246  38.433890 -18.030960
Dy   29.803108 -18.086288  -6.430348
Cl  -31.973413  -5.668231   1.085553
Xe   35.746047  -5.808379 -21.807721
Ta   -6.670966 -22.039993 -21.551257
Al   13.467770  -5.838267 -43.025592
Hf  -34.832795   5.410119   8.912254
Ga  -27.321338  -7.650258 -16.896236
W   -24.996148  33.381253   5.177755
Gd   -0.680640   5.270946 -35.548498
As   -3.773307 -28.358088   4.383165
Yb   25.273167  11.677028 -25.191815
Cr   -0.794536 -20.613705   3.045453
Al  -25.034676   6.755459  30.052657
Ru  -20.298283 -15.444135  -2.653499
Ti   -5.491651  21.800662  32.671084
Rb   -5.234408  -3.825635 -28.801723
Se   -6.076121  20.470516  16.572544
Cd   -9.699993 -10.914114  35.688924
Be   13.452234  10.933303 -29.063053
Bi   23.407390 -10.283559 -32.313567
Pd    7.893415 -10.446980   8.184520
Rn  -19.101580  33.666750  16.541590
Te  -20.446548  23.444480   3.183658
K     8.327103  17.232544 -26.249157
Hg    6.176647  40.572293 -11.301115
Sn    0.753657  -3.408454  23.317397
Be    1.509541  40.875352  -7.167825
N    -6.744958  -9.292407  25.721642
At  -18.602281 -19.649168 -30.147573
Ta  -18.657429  18.395891 -16.101754
W   -21.870647 -20.799862 -24.871347
Ir  -16.043778 -13.194866 -31.235988
Tl    0.407435  -2.371815  11.107336
Ce   33.009625 -25.753799   4.670085
W     5.111624   8.042186 -17.743621
Ca  -18.039578   0.311143 -39.357791
Mn   10.774146  23.737985   2.761369
Al  -27.059060   7.332039 -28.054617
Ne  -29.249256   7.373935 -20.869677
Ir  -19.200779 -13.478218  27.063904
Al   13.450471  40.293699 -13.650786
Ru  -42.631172 -10.012068  -6.577272
Br    3.451860  11.407965   3.816226
Ru   -6.933471 -28.251582 -23.955899
Br   15.552041 -19.848305   9.893945
Te   32.646026  30.252821  -1.903022
Ni  -11.312916 -37.477551  21.319317
Eu  -23.666287 -18.379968  32.623795
Er    9.220870 -24.530319 -24.807587
Ag   17.960187 -10.188810 -22.438894
Y   -10.803124  19.668315  25.129915
Ar   25.814076 -36.292115  -8.801262
Zn   21.280027  22.538276  17.415812
Rn   39.291886  19.591995  -6.632891
Pb  -17.321146  17.554724  14.029336
Nd  -27.166907 -29.135771  -0.272046
Ag   -4.371307  37.113536  16.900851
P     1.991932 -34.048877 -15.499781
Kr   -9.189244   5.990184  17.654456
Tm  -29.203057  21.766920  26.648223
F    -4.245133 -28.846504 -29.868092
Po  -19.715426 -33.470953 -15.684794
Ge    3.239698  32.136678  -1.874338
Sb  -21.686176   1.877822 -21.761096
W    24.872410 -31.143732  15.179707
V    -4.904220 -21.723802 -20.771347
Pm    0.680378 -24.944759   6.839190
W   -42.675462   4.982516 -13.079070
Pm   16.634693  10.276721 -40.032330
Cd    2.705595  38.264811  10.334203
O   -18.681805   0.752334  -1.615363
Ne   -5.096976  19.779128  39.057828
Bi  -23.260651 -13.519045 -28.369330
Ho  -18.171908   4.297057 -14.479128
Mn   -0.222661 -29.699229 -32.330772
C    14.856510  -8.477180 -14.151079
Ga   -2.063486   5.926874   9.661542
As   24.031813  33.462611 -10.173335
Po  -32.569356  12.403229   0.957699
Fe  -30.849584   2.172828  -8.015963
Ni  -18.110707 -19.506759 -34.054990
Ir   -5.175356 -33.215702 -18.867545
Pt   -4.343836  15.211690  -5.681826
Al  -27.908974  -3.660879  35.134426
Zn    5.296880  -2.045601 -12.757709
N    12.822956 -12.326577 -10.848977
Cd   33.573065  13.629553   1.500239
H   -15.067950  21.376191   3.801059
Nd   -2.808791  21.712855 -23.417553
Xe  -15.415469  35.821561   3.771744
Lu    5.799872 -34.106145 -13.772606
Pt   -6.074372   3.012500  37.869895
Ir  -18.621274   0.981157 -18.844815
Pm    8.558241   1.923036 -11.899173
As  -23.630615 -12.226082  26.466645
Hg   22.935455  -5.877237   7.705704
Ar   -8.167524  41.794352 -15.295352
Tm    8.613531 -20.914366  29.053953
Mg   -2.125158   3.014078  21.112230
S    14.124090 -25.303282  10.409612
Os   -5.731077 -13.414830  -0.876388
At  -10.173078  39.423999  18.494143
Pt  -22.509884 -12.072083 -15.863435
Pm  -16.892646   1.281121 -21.088729
Lu   10.145263 -25.870981  23.170075
Co   -1.804068  -8.185134 -31.760686
Zn    5.209010  28.227405  -3.063662
B    15.192333 -33.264512  19.990447
Sb   14.757579  -8.349146 -40.963056
Yb   -5.948106  17.026285 -12.236172
P   -23.879900 -28.745471  13.732311
Tb    3.852033 -14.260495 -21.829535
Gd  -40.404581  -8.720786   8.818592
Mn   -3.556418 -34.877550  -0.319863
Cu   25.011355 -14.027332  27.490164
W    17.182712  11.848559  -5.992969
Pd  -28.131122 -20.175597  21.297667
Ar  -34.287979  10.831059  10.547853
Al  -27.580252 -24.876358   0.271510
Nd   24.245615   9.396615  14.004714
Er  -33.153712  -2.720113   6.808959
Ba   -7.639325  15.844553  40.009872
Ir  -26.193802 -27.680818  15.118900
Cr   34.272264  17.559734 -16.707175
Pb  -31.383479 -23.450288  19.871397
Ba   37.076414  13.403026   8.534440
Au  -31.201334 -25.045228 -12.377218
Te   -0.012570  -1.780786 -10.518976
Hf  -36.969991  -7.792822   2.957690
Ba   23.992223  -1.693957  36.871089
Cr  -11.027656  26.744284  20.694963
La  -33.177223  -8.442882 -20.052458
Nd   -1.840614   7.513905  -4.378285
B   -34.248869 -20.587341  -4.843077
Xe  -37.409348  15.563758 -15.913982
Se  -14.011856  19.205327  30.070700
Re  -36.325491 -16.032286  -4.323606
Zr    4.702908   1.869808  25.372532
Eu    3.539286 -32.404376  21.525515
Hf  -23.922842  36.752373   5.958102
Pr   -7.307093  10.803085  26.903518
Tl  -11.622808 -29.819984  16.556770
Ga   25.582869 -17.490489   6.920013
Bi  -12.794110  35.997544  23.715061
Mn   34.270541 -12.382476  -1.197239
Ce    8.448756   1.433839  39.211256
Mn  -15.040711 -11.077010 -31.898797
Zn  -15.401959  -5.208018  26.634736
Be   21.357420  13.546945 -13.095853
In   23.935955 -24.694518   1.830208
Ge  -30.994591  -5.478718  11.056933
Hf  -35.540162  14.901267  -0.308921
Dy  -25.075776  -8.561496 -15.612716
P   -29.009476  27.102739  -4.363939
Ge   10.517408 -37.639950   3.299490
Tm  -29.771581  24.036154  21.376940
Po   -2.872563  24.111649  35.605478
Fe  -36.923587 -23.163994 -10.844133
F   -16.337354  20.251407  -8.176018
Ho   22.902802  22.066031 -24.297853
Ni  -14.416531  24.700801  16.768276
Ru   26.334941  35.270842  -7.578863
K   -10.939428  22.686863 -10.334199
Ge   -3.481292  16.583594  17.447045
Tm  -40.205516  -7.134762   2.182463
Lu   19.946570  32.687645 -15.125371
Kr   30.232233 -22.133528  -7.072990
Bi    6.038101   3.237187  10.331275
Cr  -12.592875  15.311366 -12.781433
B    18.965287  -6.870528  -2.374631
Au   14.754494 -19.406233  -9.265645
Ti    5.992941  34.252874   8.190260
Ag   -7.225346 -22.918201 -27.511289
Re    7.281347 -39.037368 -12.069555
Ba    1.847055  26.609472  36.753956
Rb    3.834523  21.444198 -10.483648
Li    4.347332  13.755556  19.117085
Rn   15.608713 -18.382197  16.125653
Pm  -18.786839 -15.338068  11.781851
K   -13.753843  10.212678   6.081693
Lu  -26.712115   1.083099   4.813452
F     2.986024  -1.848358 -15.288176
He  -30.302060   1.954476   3.323113
He   -3.590562   1.439897   7.235223
Xe  -34.449632  -5.587746  -2.297721
Ni    8.085405  -1.935231  14.731151
Ba  -33.960854   9.075333  28.374151
Sm  -10.725283 -10.802610  -0.671684
Mn   -6.094969  29.630616 -10.352967
Se    8.736738  13.028607 -26.581442
Xe   14.080260 -12.966511  10.053670
Ba  -22.572470 -20.965423  14.294898
Cr  -14.303619  22.429162  -6.079970
Yb  -10.642319 -14.888391 -15.442663
Co    5.030077  26.364869  -0.586396
Hf   -1.509345 -37.276870  -0.023129
Dy    4.071762  33.993941 -10.586804
O    26.925335  19.840251  19.221517
Te   19.486406 -30.143203  16.900479
Rb   -6.284176 -15.234607  -9.436172
Dy  -21.369947  23.757742  28.371664
I    -8.592884 -41.071553  -0.024893
Au  -12.560928 -26.824879  22.437429
Rn  -28.320091  30.885528 -17.395489
N   -11.380288  26.288578   5.094812
Ne   23.165105 -17.242493 -35.380235
Lu  -29.770687  24.432409   3.582018
As  -16.264280 -27.763017 -20.496069
Ho  -14.004287  27.422326   3.792624
Sr   15.867179  38.752783  -9.837116
Ir   10.523940 -33.722497 -23.880968
Li  -30.616420   1.598937  25.334443
O    13.454421 -23.049553  36.016539
Pr   19.502887 -34.383888   5.411753
Sm   16.379798  -2.368905  40.430166
Cs   -3.847635 -19.802984 -38.106982
Tc    1.595997 -17.272806 -17.388677
Rb   15.923840 -40.498067   0.351491
Cs   15.093994  17.268699   6.741612
Sr    8.961847 -31.924882  -2.240364
Hf   -9.460803  18.720037  12.407303
B     1.759271  31.727694 -21.926728
Os   30.307216  25.098516  18.571922
Ru   -1.392109  38.903031  12.676589
Gd  -33.479483  18.580923 -24.940890
K   -39.336421   6.253836   8.323564
Ge  -25.998414  -8.778595  -2.401982
Ce  -10.174527 -12.865739 -15.204380
Si  -30.114966 -13.894230 -19.185663
Rb  -31.927070  12.288354 -14.513404
N    23.801105  11.757844  29.677379
Cd  -23.852542 -24.890405 -26.612546
La   -2.935792  22.833191  19.514622
Cu   28.796503  27.406341   9.937665
Hg  -13.296896 -20.886092   3.956915
Sn  -20.384385 -14.085781  12.149981
Re   -3.200637 -35.797887 -18.313071
Br  -34.572764  24.518026  -2.643593
H    18.182931   1.268315  -2.062038
Os  -13.806872 -16.626437 -13.259357
Pm  -18.977556  18.993583  25.215883
Br  -11.416308   7.452733   1.503653
Zr   29.229454  25.986611 -19.407409
At   -1.557059  -0.458382 -32.836605
Ba  -13.797954  16.095948  39.438074
Br   -4.744403 -35.768925  17.497783
F   -13.230528  43.660725  -0.631780
Au  -17.878040 -36.449535   5.686999
Sc   21.494193 -33.545092   4.233742
Pd    2.103547 -24.581773  -8.671521
Ar    3.445407   3.316298  18.733002
Gd   26.849765 -10.057974 -25.834706
As   -1.896690  -2.724989 -23.093307
B    15.838978 -18.280143 -22.710634
Be  -28.661556  14.043293  30.770274
Tm   31.490375 -12.793747 -26.094863
Rh  -11.871697   5.026279 -13.722315
Fe   40.374578   8.532655   4.332797
Sr   37.152908   9.145552 -22.487860
Mo  -29.974437  19.853702  17.382777
Po   35.572609  -6.695657   0.471804
Ce   -1.531007  38.533435 -24.400711
Pm  -25.310438   8.002573   8.555580
Zn  -20.924018   1.836569  18.983578
Ge   -7.557807   7.070211  -6.001071
Mn   -4.447321 -26.244601 -18.858810
Cd   27.894731   3.384002   6.891530
Ta   30.575947 -25.776925 -18.646486
Ga   13.781902   6.815553 -31.209507
Mg   -0.118897 -12.666522  14.829612
F     9.248831 -28.961002 -10.325684
Cl   31.161408   1.824299 -25.468558
Li  -30.655211 -10.187417 -19.194055
Sb    3.575150 -18.509438 -12.858132
Be   21.988611  20.052813   6.362973
Na   -7.950615  -3.705566  27.148208
Be   -2.019512   4.526655  41.845073
Be  -33.629490  -7.408065 -16.890063
Cd   15.917713  20.919883  32.885831
As   19.092427  26.817040 -11.295582
Ni   13.047341   4.008212 -37.661363
Y    17.479594 -25.523372 -24.686454
At  -25.296716 -25.343680  23.444527
Cr   -3.688179  12.879870 -33.787324
Ce   -2.923502  -8.513382 -17.167302
F   -27.358659  15.273738 -18.637606
Nb   -8.565297  -0.348749  -4.002132
V   -28.010046 -26.531175  -9.532509
Lu  -37.125339  17.849838  18.554191
Re   -7.190175  30.799377  -7.096669
Ag   13.120462  11.918517  17.301128
C    -5.983072 -30.911806  -9.253976
V    20.447198 -11.318743  26.376594
Tc   13.004162  12.812695   5.087365
Rn   24.208197  34.652088   2.548776
Sm  -10.588490  17.569601 -12.376574
Cr   40.574463   0.546031 -13.933465
Ca  -38.588131  -6.718767  19.375050
Pm   12.545148 -29.724497 -22.778638
Ca   32.838869  17.256506  -5.002641
Tm   34.554476  29.655080   0.443312
F    -5.791948 -27.064108  12.347234
Li   26.513497 -27.015697  -6.342575
Ir   10.807054  16.120966 -33.084992
Co   17.067765 -27.572779 -12.987325
Zn   13.345688 -25.271285  33.137094
Rn  -30.504943  21.161513   3.811798
Pt    1.312212  -7.809802 -34.459810
C    35.787740  16.786007  -7.774888
Be   28.140489 -15.410440 -10.022890
Rb   -0.614409 -13.265595  22.557908
Cr    8.438735 -19.974638 -29.455052
Ho  -33.179632  20.839963 -19.798923
C    11.791000  11.035066  20.945424
Br   17.710562 -20.192170 -18.494286
Tc   -9.710529  18.308911  -7.128001
Sn   33.664629 -14.991610 -16.827418
At   41.141545  16.564410  -1.402152
H   -18.718633   2.871445  29.592845
Ti   11.725149 -34.299043 -17.092013
Nd    7.397901 -12.032761   7.967413
F   -15.518630 -28.743266  -2.561159
Rh    1.336078 -34.221906  10.442664
La   16.660671  -3.903996  19.624901
Ni  -38.623274  -1.284135  14.983906
Te   -1.513361   1.694261 -24.897319
I   -30.336410   6.735689  17.414916
Sm  -14.057366   6.052916  26.009530
Ce   -6.146089   0.611680 -38.700225
B     6.874766  25.484203  35.281426
Mo  -23.012916  -6.792165 -31.555716
Yb   17.086328 -11.299356 -13.603448
Fe   24.222948 -19.597597 -16.844648
Zr   36.009774  10.048970  22.420383
F   -32.132555 -14.597532  19.798757
Ga  -19.598902  16.111719  -6.354157
Y   -26.340622 -28.345927 -17.423883
Ag   23.774375 -31.211213 -17.083689
B    -2.996061 -23.387557   0.882797
Cd    5.404262  13.562383  41.047579
Li    5.458561  17.467880  20.373995
Tb  -13.580231  13.183354  -4.375551
Ca    9.868514  22.593900  24.507397
Ho   17.414414 -38.777667   6.659842
I   -12.870506  -9.372422 -38.292121
Ar   34.620762  -7.147414  28.777398
Ba   12.155022 -41.658144  -5.230231
O   -15.422557  -4.570743  31.381515
Nb   31.742578   6.634363   7.309565
Co   -9.983683  -9.078003  18.988392
K    -3.075933  18.332298  -2.402310
Ca   -3.322434 -23.809572   5.166995
Sn  -13.993924  10.762215 -33.045222
Tb   -6.946338 -11.996726  -0.674017
At  -20.375088  -8.439979 -20.757095
C    18.640248 -19.114780 -13.611848
K   -30.875413   2.725417  15.368063
Rh  -13.717368  25.761532  10.414083
Gd  -11.867616  18.054703   6.184421
I    -6.047826 -33.628309  20.422100
Bi  -22.788788  27.578782 -16.003724
Hg  -16.368428  -1.914289   3.851840
Br   -4.653347 -14.615578 -29.462560
As  -10.297090  10.593888   6.324753
Sm    1.388779 -19.553508  36.657078
W    13.091437  20.938152   0.657166
Mo  -15.760825 -25.516498  20.951628
Kr    7.683866 -32.969149   1.131134
Al   10.466568  29.241591  24.785785
Zn    0.868090  24.794021   1.183014
Rh  -42.238185  -1.000152 -16.679440
Si    2.344561 -13.351587   8.343150
Dy    4.266424  13.206449  -0.743471
Na  -16.290777  12.152194  11.703553
Sc  -29.181801   2.018438  33.497392
S   -20.100913 -22.153699 -19.939389
Rn   11.711488  17.451627  23.025224
Be  -27.351859  -7.260261  25.436179
Au  -31.140331  17.861455 -12.895150
Ni  -12.330269  17.662513  -3.446970
K    -4.818494  -4.856515  18.170121
Ge    8.115905  -8.665361 -41.786520
Tl  -22.282657  25.822080  15.430415
Rn   23.668244  17.236444   9.121396
Bi    7.796138  -1.874341  23.243134
Nb   20.688597  23.561861 -20.979285
H    10.431574 -15.692803  12.059469
Sm   16.360324   5.529152 -10.378362
Zr   14.804098  18.608780 -19.428791
Li   24.841910 -25.635889 -25.833214
Al   25.555989  -1.244645  30.207380
Te   15.556583 -39.540654  -0.659360
Nb  -14.576207  -5.943298  28.095328
N    -9.537041  -9.341480  41.855714
Ti   21.666611 -24.888507 -22.074080
Ce  -10.280530   2.276992 -14.903899
Sn   -7.802641  28.537777  -4.348130
Li   25.591909 -31.425895 -13.195822
I    10.844855  -4.576916  37.878742
Pd  -18.269950 -35.385577  21.808136
Hg   17.892309  16.890748   0.446287
Ca   -9.300886   9.769016 -26.274079
Yb   10.230389 -20.369528 -38.574750
Be    3.050185 -22.540689  12.735370
Ba   25.163571   1.811705 -10.421730
K     0.460203  43.330996  -4.654276
Er  -28.451736  28.233939  -4.534054
Te   10.843037  -8.491420  41.175549
Gd   19.975880 -20.414223  34.106033
Mn  -23.286616  11.598029  32.324859
C    -5.121448 -16.361733 -30.549264
H   -24.932227  -6.310270  10.397579
Os   19.928261 -36.255925  18.985867
K     6.352337   4.218036 -42.505763
V   -13.636719  19.140956  13.259938
Cd   29.598115  10.706196   4.457206
Kr  -25.011053 -27.982801 -17.720385
He  -27.571058  15.438332   3.432891
Ni  -10.810186   0.398770  22.154184
Na   10.628875 -13.196673  25.437155
Ga   -4.008738  34.166224 -13.561217
Se   12.767189  21.959435 -29.272584
Sb   -4.886657 -12.193268 -10.390161
Rh  -13.857591  38.967271   8.996037
Ca   13.081618  -3.222740 -34.585738
Eu   10.154861 -19.475903   2.019233
In   37.970987 -18.632027   0.309577
Tl   -1.638705  -3.500459  42.236840
B    28.109599 -12.153498  28.516594
Pd  -33.045154  13.659562 -24.585069
Hf  -12.693768   1.243649 -36.739215
Ho   14.724917  21.641461 -17.464776
At   34.754858 -14.874550   0.783027
Ta  -30.614950 -13.909125  -7.963908
Pr    7.184188  22.041214  37.557667
As   -8.778490  28.375801  -1.026898
Na    9.347580 -32.164614  28.288330
Ar    3.723601  24.770056 -23.777709
Kr   13.790811 -17.356410   1.075667
Gd   -3.621754 -14.520493 -36.883438
Zr   -0.368176 -30.073642  26.404688
Cl  -35.695481  -4.202745 -13.294638
Ga   27.514160  18.905911   3.927445
Zn   11.862699 -22.894316 -14.349279
Tl  -10.646150  42.001881   9.317416
Zr   33.023518   2.712226  24.606194
V    12.795719 -38.774236 -11.350706
Ta  -33.057787 -24.993796  17.091641
Kr   -8.261669  10.444324  20.078218
Sc   17.245845 -13.623953  39.390629
Cu    3.769781  18.240868  -0.424921
Tc    9.177755  -1.529245   3.445273
Ag   13.501089  18.108769  20.071835
Ti  -21.317901  11.331042 -21.618912
Ne  -24.591231  22.918514 -22.458483
Ga   27.184117 -16.990246 -15.468540
Mo   -6.414753 -24.699692  19.494328
La  -14.261429  26.169718 -29.764111
As    1.025154 -22.533979  39.654715
Fe    3.934112 -11.760072 -12.907496
He  -11.770123  -0.554680   7.169259
N     5.774205   1.746110 -13.497756
Zn   42.088524  -5.027829  11.007370
Si  -15.397925 -29.214916 -26.657020
B    -0.991234  18.664305 -10.256239
Sr   -8.499660   6.705660  -6.107439
Al   22.377872  28.109616   2.027180
Y    11.757231 -34.980553   6.140149
Cr   18.045543  10.469368   0.550416
Ce  -22.128358  35.334450   3.671284
In  -28.371215  17.849220  23.518883
Ce   10.720261  11.990672  19.512823
Au  -12.447353 -19.004073  27.042706
Te  -13.982453  -7.876210 -15.029933
Al   26.691507   0.242410  16.785285
H   -13.994764  19.779738   3.522455
S    38.120537 -20.399310  12.457849
Sb    6.897811 -32.128672 -15.907604
La   -6.826420  12.153380  18.896343
Mn   18.067356  22.492580  10.495906
Be  -32.707081  -5.844125 -23.414854
Si   14.354136  21.034342 -19.980798
Cu  -12.329134 -21.950599 -32.191366
Be   31.929952 -12.503663  18.806711
Zn   14.695577  -9.132827  30.905066
I    15.232334 -19.612081  25.243592
Sc   -0.231578  20.432839   6.389986
Mo    0.760134   0.980650 -44.218262
Tb    9.558989   8.978905 -22.973092
Rb   -5.484441  41.340918  -8.122191
Er  -11.594830  31.386100   8.593205
Ca  -10.852574 -18.250662  -9.966512
I   -24.613149  18.059837 -10.594068
I    13.524569  35.596258   3.742092
W    18.157628  -1.087661 -28.060577
Po   -4.937867 -12.077581   6.637437
Rn    9.888919  -4.151821 -35.295491
Ce    8.688755   5.511464 -21.656001
Rn  -35.329188  -9.673467  -3.677544
I    13.754346 -14.562973 -37.329713
Lu   23.213150   5.828565 -14.976485
Tc   15.775837  -3.576604  10.751915
F    26.751159  15.226342 -17.045347
Cr   37.016556  20.957985  11.075665
Pd  -25.356303  -0.525905  -1.430467
Ni   18.681939   6.277927 -14.536699
Pm  -31.110706 -19.030692 -13.985937
Be    0.814635  17.475519   2.318732
Lu   -2.659509  41.707621   4.344171
At  -17.071349 -39.395737   2.404163
I   -15.081226  -8.825250 -33.312819
Er  -11.198714  -9.781075 -13.983106
Eu   15.215249 -12.512235  23.572976
S   -22.817648 -16.593732 -27.387276
Ag    3.109747   9.782150  18.794924
In  -27.273598  32.880379   6.294091
Ho  -19.551849 -20.686289 -22.553919
I    20.473929  27.453435  16.352505
Ti   -9.654577  28.383187  -3.001423
Nb  -12.621584  34.275947   6.456997
Gd   22.689524  -7.890772 -26.691036
Lu   -4.976770  32.495596 -15.894497
Ho  -12.563390  -1.822241  40.251237
Bi  -14.519473   6.874921 -17.313532
La  -19.550402 -21.950688  25.536111
Mn  -34.410338   5.141532  -9.702592
Cu  -33.447345 -20.289020  15.384177
Ce  -21.852306 -26.150707 -26.570127
In  -35.673701   9.673216  -1.354324
Ir   26.870965 -14.823447  22.259489
Er   20.207413 -22.011966  32.023409
Cl  -44.673991   5.871727   7.043285
Gd    6.455016  27.674984 -18.064117
Yb   20.478794  19.323367  29.605758
Lu  -20.387279 -38.526263 -13.349735
Ag   14.054833 -16.159136   8.156745
At    3.562606  35.187955 -16.079557
Ti  -22.804343  16.228471  29.777395
Kr   30.319264  -0.319408 -26.473106
In   -5.520410  10.136174 -35.314965
As   15.371124  -4.570922  -3.044288
K    17.946257  38.704800   5.501946
B     6.483178 -43.742363   1.050081
Se   -8.234089  -4.230161   5.745417
As  -37.044607  17.789955  -9.242990
S     1.312092  13.078555  -9.181413
N   -24.420405 -17.305323  15.999502
Sm   21.395497  33.082297  10.320515
La  -18.955519 -17.373063 -14.225377
Ir   39.533219   9.231651 -11.557153
Bi    2.202230   5.723874  20.218753
V    11.754286  23.652313   0.733204
Se   30.191854   4.036595  -8.175831
I     9.816284 -35.475568  12.019836
Be  -20.792307 -16.095031  27.315865
B   -15.303367 -33.183090  17.304303
Tm  -34.386892  21.225985   8.328075
Nd  -37.063714  -7.501844 -12.763221
Ba   32.144670  -7.799637  27.766791
Ti   24.045175  27.384022  21.989652
Rn  -27.332258 -24.598067  17.591587
Y    14.390251   1.380101  25.954071
As   -0.199248 -31.246904   5.723890
Be    4.897974  24.760397   7.515072
Ir   -1.995332   7.917791  -8.648274
In   30.068039   7.224424  20.033546
K   -18.461463  -7.111480  22.298437
Ca  -18.737291 -33.777636 -18.228037
Au  -28.780810 -11.121384  -6.780174
O    -0.007452   5.583209  23.919684
Br   24.550053  15.871963   0.252252
Ag   33.235936 -27.992883  -2.859133
Er   28.310551  -6.886518 -25.625635
Lu   21.025783  10.215127 -25.572265
Pd   17.156877 -29.809626 -22.426755
Po   39.749212  -2.660486  -3.760297
Sb   12.177369  -5.465822  12.023825
Sb  -25.790778  18.834947  26.296562
Pd   29.750222  -4.509464  13.529285
Yb   38.976404   0.433173 -20.901135
Ga    4.647598 -23.341484   3.503623
He    5.897300 -10.270321  39.357871
Cd   -0.363112 -36.360188  21.065003
Dy   27.372238 -31.214888  11.180824
Be  -25.814986 -25.672201 -10.891658
Er  -32.185129   6.250385  26.231233
Al   10.226389 -26.667916 -30.195405
Os   -1.656383  38.618677 -12.863934
Nd  -16.986892 -16.620281   8.217128
C    16.507726  22.074360   7.569933
Mg   12.572439   1.798107  -6.601638
Sb    1.511724  44.709203   2.522811
Ag    5.866176   0.513458 -24.503534
Cl   33.054812  24.001534 -13.941279
Sr   23.145845  12.505853 -33.501730
Ba   13.922630 -31.987956  10.338448
Rn    7.426372  11.587059  33.954921
Rh   -4.313078 -12.731472  39.818880
Sn  -10.012894  18.909762  10.337136
Si  -26.455077  11.650390 -33.161477
Tm  -26.290105 -16.122097  13.685011
Lu   23.735051  10.824390 -16.760907
At  -38.340760   3.954310 -14.855158
Re   -7.841089 -29.640440  31.878183
Dy   -0.462731 -21.391871 -27.452766
Ag  -25.735550 -14.714503 -21.868801
P    17.928745 -13.855426 -38.756310
Al    0.799142   3.945237 -19.324285
Fe  -42.646438   2.100011  -6.721325
Mg   32.968814 -11.951465  28.965473
Lu    5.052628   3.810019  -5.909403
H    22.443984  -1.156917  14.403421
Xe  -36.360301   7.614803   1.047499
W    12.626449  22.667625 -19.344274
Ti   -2.704031  -3.968203   0.620684
Ce   13.773003  21.318745  23.285932
Ni   37.787749 -18.965047  12.583908
K   -16.655915 -16.287378  -4.768728
Nd  -38.659161  15.503084   4.218608
Po  -18.061214   9.927699 -10.058592
Au    6.391151  31.877323  29.064762
Pr  -11.089903  29.140114 -24.923812
Te  -25.349386   7.842318  19.787022
Kr  -21.934370  22.769622   9.702969
Ru   -5.336909 -12.852928  -1.889130
Fe  -22.989434 -18.332173  24.338407
Ba  -29.565450  -7.866692  11.617011
Pt   -3.233431  10.823910 -35.723395
Li   31.404660 -21.610919   1.885019
La  -25.305699  -2.793599  10.283486
Po   -5.445799 -19.999228 -36.585010
Br    0.473472  -0.296331 -20.125333
Ir   25.293189   3.257563  22.778166
Ru   34.492515  -6.322727 -27.815338
Al    0.794696   6.467563  36.214774
Yb   -1.858788   1.340884 -26.415088
Zn   -9.764648   0.072536  15.307126
Ge   37.769874 -12.673922  18.573836
Rh   20.470850 -35.788411  11.032664
Rn  -11.408012 -17.883400 -27.445814
Nd  -30.079658  18.173873 -27.096467
Li   33.737001 -14.109511  22.292747
S    17.801827   8.817386  33.980795
Sc  -15.248187  -4.617765 -26.242264
V     9.414735   3.173560 -38.165723
Lu   -4.466819  -2.880231 -18.944832
H    -8.317135   2.269816 -11.451383
Ho   -0.561301  29.374348 -12.593603
Eu   35.463330 -20.653195  -8.274464
Rn    0.675730  25.694020  33.269591
Cu   26.782258   4.409317  -7.584164
Cr   -1.463457   6.189713 -40.571181
Sc   -7.291138  17.144159 -17.687102
Tb  -13.797918 -18.628006  28.854094
Tb  -18.874179 -18.339733  12.498621
Ti   13.302453  34.482147  -2.045428
Bi   11.567674 -13.962841  11.524533
Ta   -9.201879  12.476873 -21.268266
Ne    5.458574  23.721448  13.873168
Kr  -31.676877   6.266397  17.459076
Se    9.643991  -8.655409  12.703503
S   -26.838581 -17.741708 -29.232543
Pm    2.447803   8.772900 -22.350584
Kr  -25.044613  19.404091  -3.634397
Sn   12.296844  29.449968  14.611965
Ru  -10.692747 -24.443615   0.226713
Po   -3.780143  30.303407  -0.685967
Rb  -27.313401  25.124645  12.903243
Cs  -26.856857   8.927877  -6.853351
H     9.914333  23.123595  34.855409
Be   -7.823391  -5.873889 -19.094683
Re  -18.383767 -18.379426 -36.558851
H     3.498933  25.425081  33.938647
Gd    1.143318  -7.098356   1.133688
Al   -1.437261  33.453238  30.356502
Tc    2.495812  26.949051   2.102683
Sb  -10.897497 -19.880406 -27.323722
Sr   -6.950316  12.315290 -19.370694
Cl  -10.125142  -2.349010  39.989423
Gd    8.297181  -1.407377 -25.862636
Y   -28.001143 -33.258937   6.564689
N   -12.198918  -6.292603 -27.344036
Pb  -15.600534  -2.041459 -10.299207
Y    -8.190954  15.246031 -36.964818
At   11.135714  21.825383  25.243178
Cd   -2.412787 -15.952556 -41.513551
Sn  -25.110153 -22.396272 -17.662832
Se   16.612293 -12.235049   6.368219
Mo    3.342952 -15.433792  19.119670
Ta    1.588539  28.819399  -8.344045
Mg    3.393576 -23.480937  11.496153
Hg  -23.874085  25.986864   4.353653
Nb  -23.671879 -11.754038 -35.453185
Sc   -5.837264  17.227944 -11.341961
Hf   39.531380   6.826305  -0.965823
Rb   21.181218 -35.284146  -8.564204
Cs  -33.813630   7.439831  27.002196
Mn  -15.954950   2.498510  -3.945227
Br   -3.271823  22.453313  26.881980
He    9.753837 -30.087262 -25.741468
Ag   25.220755  10.683034  -5.623737
Ba   29.162830   3.972419 -30.149170
Ge   -3.866121 -12.632430 -23.826815
Cd    0.692732  15.327723 -28.507052
Ca  -10.522906 -23.129647  23.026322
Be  -16.250515 -29.793845  23.504918
In  -14.946548  36.811094   8.529067
Y     0.233990  -5.341006 -17.614203
Tb    1.596650 -26.599866 -21.698942
Os    9.475788 -19.504287   5.266779
Nb    1.616495 -22.292286 -10.474864
Ne   40.071002 -18.515300   2.391808
Er   13.844431  11.208949  12.203986
Pm    1.067396 -42.335685 -15.553576
Ag   12.275753 -29.397207   7.495957
F    32.330958 -24.773803  14.360164
La   32.840963   8.110921  23.547714
Ta   -3.750160  19.414465   9.719266
Kr  -41.986877   4.481064  -4.826460
Hg   28.757433 -10.190924 -27.182591
Ti  -44.380318  -3.994757  -5.734863
Nb   -0.065857  -7.964929 -10.393200
H   -42.055201  -5.568024  -5.275300
Tl   -5.133160  18.772925  -3.231996
Br   34.171422  -2.135032 -14.981279
Er   21.726029  25.714169 -21.707458
Bi   -5.782971 -39.384889  17.337388
Tl    2.968204 -22.207793  15.898534
N    12.023023  35.429929  24.291166
Sm   -4.775993 -25.136061  17.715715
B    11.425296  28.259858  32.972894
Si   21.263907  -4.282021  -7.421809
Mn    2.356889  -0.938551   0.272303
Pr   27.027458 -29.449518  -4.670585
F    27.914245  31.553576 -14.782875
Br   15.504389 -25.093213   1.397890
Cd   36.238624  11.327644 -13.121596
Hg  -28.433674   8.418605 -19.467900
Be   -6.428286  25.370805 -36.234463
Fe    7.858780  31.087801   2.229982
Dy    0.177263  36.809686  13.747693
As  -16.176872 -14.406915 -11.185173
Tm   10.240794 -38.785445   0.193434
Dy  -23.258672   9.363088  34.867710
Zr    5.098564 -21.568645 -14.997970
W   -35.743004  -3.655916 -15.143282
O   -30.629553 -20.781301 -13.099406
Be    2.277105  16.306693  30.052372
Sm  -26.851904   4.712607   9.499185
Zn   18.062057  34.924075  22.799745
C    16.099848 -35.837569  -7.798726
Na   11.582969 -31.439152  -7.171989
Pb   19.248840 -26.699021   6.833280
Cu   -2.854269  24.936836  10.721171
Al   31.054643  -3.483069  -6.246786
Pm   21.658364  38.461283  10.846482
Cr  -11.883559  -1.153660  22.237873
Xe  -12.393263 -13.408389  22.397699
Sr    8.170545  19.949284  -6.302682
Pb  -30.078758   3.827365  27.497936
Be    8.788690 -27.843331 -19.089062
Tl  -26.264848 -17.292500 -20.276965
At   28.443914  -4.662752  -8.161931
Rb  -29.238210  19.477448  -5.938433
Ne  -38.836868   1.025919  10.355013
C   -36.027497  20.396019  17.948477
Zr  -13.451420 -24.737931 -14.117945
Ce   26.389254  10.820658  -0.259840
Ag   24.748242  25.692058  17.320466
Ca   -4.512503   4.010377  40.976184
Se   -8.589089  -5.791053 -42.668569
Ga  -41.216349 -16.266909  -3.070907
Zr   10.923842  10.516909  36.085824
Cl   -7.246184  35.312832  26.404507
Tl   -3.475518  -9.452847   1.017856
Xe    6.819573   4.429261 -41.318348
F    -7.771166 -28.837711 -33.803166
Pd  -22.882963  34.930874  17.644986
Gd  -29.544757  32.543580   8.775888
Zn    3.183217   5.563330   8.292294
Ga   19.498885  22.974944 -18.011256
Pb   17.277954  -1.140986 -27.823042
Sn   26.906829  11.794578   2.496051
N    30.785532  24.453268   4.719790
Tc  -21.075298   1.032931 -27.409551
He   -5.357665  -3.833393  22.009994
Pt   21.097633  31.597646 -16.268277
Ce   28.003598  18.313890  -1.929332
Mn  -13.095540 -19.661490 -31.796041
N   -26.525014 -31.989052  12.547831
Mg   24.335835  -0.473035 -18.053498
Tb   25.679142  11.049266 -28.616114
Nd  -28.054550  -8.210440  10.456954
Tl   19.283312 -19.258829  29.606364
Pt   -2.038940 -35.082565 -27.823411
Te   15.253555  17.883210  27.815784
Mo   -5.102569 -12.701737 -17.970771
Lu  -16.060133 -13.125271 -35.369555
Pr   -9.738383  -7.369802  19.837860
Mn   -1.693282  -0.859033   7.529455
Co   10.115128 -25.900006  -6.602040
F   -15.573707  26.909066  11.085754
H   -13.001875 -28.491319  26.575116
Ba    4.256642  -5.300210  33.136632
Cs   21.996338  -0.476692  37.403562
As  -39.781269  18.972178  10.307670
Po   31.367137  24.325298  10.509502
Gd   -3.597187   0.865866 -17.265119
Ga  -15.512956  24.785324  33.941787
Na    6.285287  -1.878812  -2.559216
Sc  -17.958193  -3.323829 -27.535048
Pb  -19.715616  32.962316   4.947942
Te  -21.265525 -19.912324  16.382218
Mg   -7.307426 -15.892391 -40.146657
Fe   -1.616226 -23.234925  34.977576
Tc  -17.689704 -21.780367 -12.445926
Be   13.146522  -2.302778  35.021852
Y    -0.323483 -17.978616  19.084085
Te   -2.038541  13.351858  20.922765
Cu  -30.577464 -31.695348  -6.442379
Tm   17.524936  15.482072 -24.122778
Cl  -12.054721  -9.724626 -12.439493
Rh   -4.648885 -26.948857  -6.853721
S     3.594061  21.484349 -37.411942
I    -0.757803 -23.508295  27.075959
In   -1.271635 -37.745537  11.054484
Li   36.628388 -22.535026   3.029963
In    2.877339  -2.962753   1.657118
Mo   36.463862  -4.924885  19.803962
Rb   -8.978289  10.618160  20.530417
Co   25.805518   7.380243  -5.585183
Dy  -22.321309  12.679952 -23.050064
C   -14.721078  29.984598  25.745173
N    40.979098  -2.775390 -17.101374
Po    2.400705   0.131459 -35.135477
B   -11.598384  16.753667  -7.949334
C    25.299957 -24.528709   9.187900
Sr   36.314276  -9.674918 -23.071950
Tb   29.596046  -7.173942 -32.183388
Os  -11.879610  -1.902130 -23.310726
Ag   26.940543   3.522479  16.531510
F   -14.856308 -24.751676  12.907350
Sr   -3.699248  40.478119  -7.471117
Ru   20.382457   0.068970 -26.715053
Pb  -26.019954  16.610604   1.722742
Au   18.668361  26.853000  14.614368
Nb   14.704462 -34.070657 -24.336476
Mo    2.542469  -0.712302 -33.078187
Tb   12.460983  -5.673003  -1.584412
S   -24.189040   6.160017  -2.588935
C   -15.622155 -19.634926  22.255618
Al    7.629621 -14.423812 -34.525705
I   -40.986259  -3.990165 -14.575968
Mg   17.930516   0.024375  -9.222297
Hg   17.736770  -2.555882 -41.842536
Ag   -2.501546  14.286704  37.917183
Fe    0.072341  -0.393045  22.211067
Gd   20.037909 -14.320554   8.355234
N    30.445702 -11.141333 -23.854340
Mg   25.388513   4.356504  24.212642
Tb   -3.012487 -13.315986  -6.563083
Y   -12.617137  -8.771460 -32.648820
Ni   23.364656   7.064351  -0.726082
Yb  -40.705330 -17.509472   0.649024
Ag   -8.694749 -12.500073  29.465002
O    -5.357476  24.690786   2.630214
Br  -24.754452   8.980122  13.135306
He   27.355189  -7.650105   4.089158
Mn  -22.559989   6.420219 -33.121955
Cs   24.046251  20.140132 -18.235995
V     4.872787 -36.818820  -5.316432
Fe    5.568213 -38.250277  21.480028
Ho   -0.730629  12.320469  41.015238
As   -4.854101 -35.929081 -14.652790
Eu  -17.198216  29.292892   8.707971
Kr   -7.526542 -36.022358  13.554253
Re  -20.809843  14.126738 -22.038577
Dy    1.054161 -12.864746  43.812906
Ho   21.033270  11.982950  30.766467
Sn    7.423211   7.581012   2.404702
H   -31.989422 -11.774209 -28.615996
B   -27.331366  -3.305622 -33.911212
Nd    2.312414  -8.383021 -36.515252
Tm  -30.301428  -5.398135  -7.467425
Y   -19.836153 -11.408640   9.412725
Hf   15.497473  30.074315  22.810923
Kr  -12.944326  14.281114  22.122765
Sn   25.606315 -13.682276 -32.805858
Li    5.458106  -8.697833 -26.185284
Pr  -35.445554  26.929013  -3.599109
Zr  -17.951927 -11.315209  -8.908830
Fe   -6.930570 -39.620146 -18.432670
Ti   -3.795526  16.562908  35.157573
Fe    8.309781 -42.747786 -11.530729
Rh   33.095561  18.556624 -14.761607
Er   26.322696 -35.513415   3.939417
Co  -10.362496  -9.158672   2.352474
Be   41.457562   7.877454   2.456493
V     4.778349  31.767675  23.046792
S    32.280121   5.947303  -5.942947
He    3.292706  -7.161039 -30.810602
Pd  -19.588846 -32.068706 -22.582684
Rb  -23.285480 -18.170456   4.881501
F    12.018571  39.178365   8.641003
Ta    2.861973  25.861609  -3.244639
Bi    1.221082 -13.055909 -14.486873
Si   17.824997 -12.891841  34.093553
Mo  -39.183067  -0.122991 -23.144630
Tb   16.225820  -9.408806 -40.695735
P   -12.016141  -3.395349 -12.697845
Be   -8.716968 -25.234440  18.536895
Li   33.153884   8.410319  30.081086
La   23.853872 -27.624289  23.056880
Gd   10.697607  11.043650  -1.042760
Zr   27.191195 -35.756079  -7.491041
B   -16.979708  14.247430   4.733579
Br   20.777752  31.900124  10.216058
Ar   36.348535 -15.561571   6.263900
Hg  -32.933262  12.664760 -28.782538
Sb   -5.248989   0.672480 -45.129972
Kr  -12.317606  21.284752  19.468223
Ir   27.880881 -17.641746 -17.436201
N     3.466850  11.597810 -19.878694
Zn  -18.765320  33.969937  10.100591
Zn  -10.326438 -39.561009   2.275024
Ti  -15.629497   7.374511  18.875647
H    -5.277169  19.226973 -15.056801
Ho  -11.008488 -26.416060  12.140230
Sc   19.325490   3.050769  15.829244
Ho    6.115381  -0.630548 -17.282316
Co   -4.115644 -18.464270 -12.431985
Li    2.337062 -25.824403  32.278793
Zr   35.502267 -16.129130  -0.890378
Cd   19.863744  36.285005   4.397956
Tc    0.513852 -10.863182  14.839704
Sm   30.698811  -9.904243  13.313177
Co  -25.787293  13.813638  24.474220
Lu  -31.865798  25.348156   5.592745
Ir   33.589148 -16.615786  -7.840878
Cs   16.385766  -0.577610  10.724627
O    13.346743  11.842616 -29.234092
Te   -2.520656  17.724290   9.130171
Pm   30.707507  27.920170   7.317274
Hg   39.131987  14.337605  -8.789830
Sn    5.664106 -37.399570  -1.046444
Ni   -1.385665  -2.154084  44.182241
Tl   17.016333  39.482373   1.285819
Ti  -30.188887 -15.114717 -16.126806
Ti  -26.862877 -19.640760  16.538942
Fe   -0.907182 -26.817759  29.681387
Ho   -5.664887  -4.491263 -16.924890
Sb   -3.577433 -35.369254  -7.734614
Dy   30.011197 -32.851523  -9.339174
Ne   -2.369250 -21.684465 -26.444996
N   -36.079461  -4.956641  16.372792
Er    0.225711  18.610027  13.523915
Mo   19.301864 -36.163474   7.291534
Hg   16.993479  -5.827632  34.763499
Zr  -13.948503 -23.166274   7.133695
Ti  -30.537082  -0.681091 -28.079926
Kr   34.835296   4.883380 -16.538320
Tm   11.400515  -2.387686  35.119854
Ne   20.200664  -2.535997  23.969646
Tb   -5.810589 -11.951580   2.882084
Ne  -19.315625 -35.177632   4.005440
Mo  -12.916928  22.848914  -9.857920
Kr   31.523607   1.438311 -14.103376
Cr   13.794557 -35.146575  17.303982
Os    7.769303 -34.074574  12.250858
Rb    9.620336  17.127747 -38.181978
In   43.777632 -11.584757   1.352425
Cl   33.051564   1.963209 -23.557760
Zr   -9.713406  14.747318  11.332018
Pd  -20.587133  -5.262903  21.129784
Pb   18.579526  22.725475 -31.073117
Os   23.749345  14.023716 -15.982986
Cd   12.691544   7.943048  33.812912
Te  -12.503903 -26.350444 -13.058730
Li   31.418380 -22.772296  17.226167
Ho   16.726100   9.361659   1.760683
Ne  -25.036630  22.397232  11.179091
Ba  -11.703970   6.591607  24.409005
Se   12.080780  20.117938  14.761309
Nd  -11.498484   8.450100  13.242351
P     6.690682 -21.989331 -20.406774
Pd   25.650260 -25.798173 -12.199928
Ce  -17.739091  32.122402  -7.294753
Cu   -0.695996 -33.117581  21.000712
Se  -30.581903 -16.586378  28.535586
P    10.158112 -17.354575 -24.572752
Mo   12.707053  17.534613   3.862739
In   -2.952038  28.349221 -28.865146
La   -9.538794  -7.600149  15.500406
Pm   -8.071765 -12.615092  28.663220
Cr   32.917712  17.314739  17.724182
Se  -17.076501  36.628416   6.010768
K   -27.352811  20.368765  24.601971
Pt   -1.824258 -12.228301  26.871716
Yb   -7.079323  17.395982  12.915286
N    10.600581 -36.634145  -8.198290
Hg   41.469808   2.742722   3.561683
Mg   35.382361  25.766931   6.850385
Ni   18.971296  -0.082230   0.281774
Ga  -13.491792  39.093149  -4.465936
O     1.690376  41.095892   6.259907
Ce   30.210802  10.918210 -31.176181
Ir   -0.590398  -6.344708  12.449585
Hf  -25.821305 -15.048669  12.000145
Co  -18.405798  22.932010  20.062387
Se   35.339088  24.385104   1.854734
Cr   -9.397275  11.124716 -14.567965
Pb    6.397199  34.862549   9.870458
Br    2.934338 -20.183608  34.515360
Rn   43.581601  -6.602794  -5.120190
Pm  -28.571072 -10.141741 -30.237315
K     8.916161  15.963887 -14.135630
Zn   35.560096   6.411394 -17.368147
Y    14.565788  10.423430 -25.183793
Kr  -20.869363  15.633104  -5.919540
Pr   11.554557  21.448536  28.885057
Bi  -30.819635   5.910113 -11.912046
Ar   12.587164 -25.996034  -3.884056
V   -24.448904 -14.784799  -2.358104
Mo   21.502394  25.461964  26.798393
Cr    0.592066  24.330635 -13.178087
Lu   -9.936119 -24.923679  -8.149489
In   19.569269 -12.854675  -5.221895
Si   -9.165293 -35.334510 -21.805180
Er  -30.500604  28.100733  -7.180396
Rn    0.110937  16.307912 -42.514444
Ru   -4.550849  26.859528  -8.040938
Yb  -29.707417   0.431297  26.741476
Se   18.413770  -8.885306   6.946245
Mn  -31.735434   6.679403 -21.388394
Ga  -13.639387   2.300650  -3.418611
Te  -16.981470  -0.937779  19.245085
Tc  -19.591415 -19.851578   6.761867
Xe  -22.394683 -22.248474  -8.810077
Pb   30.303965  -5.046379 -22.207126
Rb    3.991181   4.161933 -28.229182
F     0.955285 -22.400152  21.934647
Ta    4.925884  -9.563228  -7.599379
La   18.171341 -28.926343 -27.217470
Mo   27.523373 -23.385633   1.679521
Co   29.741390  10.398384  -0.141268
Sc   34.276688  14.598433  22.938889
Ir   18.339565  11.769573   7.055075
Sr   15.498473 -22.569393 -34.167882
Rh  -13.854377  10.426310  18.885747
As  -23.846051  27.394909  21.070900
Ni   21.348412 -13.824332  37.467610
Os   28.928989   7.849441  -3.245883
At   18.027392  13.751647  19.940672
Tc    9.867624 -18.762129 -19.343206
Tc  -13.056046 -21.018229   7.918742
Ca   24.555238 -13.691027 -22.908818
He   -4.977196 -21.404542 -31.085696
Dy  -33.710012 -27.127205  10.401270
Cd   16.843552 -37.455355  18.075225
Br  -21.660412  32.330321  17.930794
At    4.588182   2.410295 -20.514077
Ce  -24.056542  -8.678863  -5.910239
Pr    2.198909 -37.763652  -3.896029
Co   -9.515841   4.464990  -1.739168
Ti  -15.469924  27.391060 -23.920879
Nd    3.647927   9.134976 -31.992905
Ge   22.585552  -9.631691   9.286218
Ag   19.232402  32.385904 -22.726773
Tm   15.528085   7.760116  37.728144
Rb   20.060593   5.297194 -35.653646
P    19.892952  24.750524 -12.716258
At  -10.032449 -10.978884  43.210019
Sb   13.549728  21.708868  25.945611
S     5.311527  -8.555929  30.323583
At   31.754805 -17.269315 -24.112555
Ir   -6.049324 -22.749797 -12.772589
Cr   32.601405  22.170770  -5.912365
Fe   11.185182 -29.378423 -31.945469
Si   38.140903 -14.564362   4.743186
K   -13.682512  11.898073  20.518431
Po   18.068783  37.945650  14.873127
Nb   23.764897 -36.440405  -5.330776
Lu   36.241805  -7.801475 -24.533912
Er   16.580610 -30.546053  -2.556872
Sn  -12.567542 -16.848125  -8.566142
Ag  -38.158238 -17.789407  11.295758
Sr   16.023789   0.898750  25.802561
Gd  -16.259799  35.448605 -14.072656
Tl   35.112054   0.718614   5.684733
Os  -37.218421 -16.395437 -17.721645
Pt   12.222942  -6.108136  21.337533
Pb  -11.407060   8.472233  23.210348
Cl  -32.552940   2.634614 -12.778442
Pm  -39.607745 -12.593398   0.548369
Re  -42.243609 -14.280316  -9.360081
Be   32.940856 -19.958438 -23.101990
Pd   16.406793 -11.858086 -37.950149
Ar   21.828284  -8.758479  -4.159618
Hf    4.470834 -31.275872   7.792819
Sm  -25.657427  10.790821   3.356593
Cl  -23.442115 -27.977378  23.705100
Rh   15.957414 -13.098914   9.834864
Ce    4.257439  21.006937  14.659109
S    17.139330 -15.101179  23.943551
Se  -39.904578  -6.304782   8.706537
Se   34.977530 -22.839197   8.552172
Hf    0.665247   8.615532 -28.810246
Ce   27.364833 -31.037443 -12.489670
Dy  -26.569377  10.867285  -8.072600
Pt   -5.568556  19.020080  24.761974
Cs   15.050164 -14.510116  -0.979797
Ta   21.483255  -5.773975 -32.626250
Br   -2.783571 -15.602219  32.468987
Zn   26.434008  29.466129   0.872674
At   -7.832174 -29.364447  25.474432
Cu   28.421224 -13.275055 -29.179197
Hg   23.236904  19.045216   7.937970
Xe  -25.618439  33.155400  -5.563961
Tl  -23.274982  12.257284  -2.737139
Cs    1.174802 -26.733367 -36.500478
Nd   -0.074005  13.461580  10.118889
Gd  -12.160766 -17.903114 -21.601259
At    8.481989  25.993728  11.688034
Te   27.264998 -16.743551  -4.453477
Tc    8.226736 -10.249820 -14.401475
S    -9.162648  37.109444  16.896714
As   -3.007654 -18.750823  -5.174751
W    34.086628 -15.063984   6.121486
Os   14.221207  29.876484 -25.710772
K    13.665962   7.729047 -26.248985
Cl    5.337355 -33.097303   6.912799
Kr    4.496819  30.488023  -5.479197
Bi    9.457033  14.625666  12.797911
Sm   24.679805   9.638374   0.547757
Co   15.386468  27.519511 -16.520118
I    -3.403914  44.531483   3.159922
Be  -14.464217  -6.200063  14.451787
Os   -4.547476  24.917594 -34.179298
Co   18.169861  30.820548  20.657005
Po  -27.001692  33.990543  -0.011974
Rn   18.456472 -16.524351  27.479881
Cd   28.134398   4.454006 -14.050418
Mo    8.456121 -10.489733 -33.791536
Ru  -28.474509  13.404001 -32.918926
B     1.765872  11.977583 -22.513992
Te   23.813824   3.228991 -16.863336
Lu  -16.743402  29.857456  13.322619
Ir  -36.134781   2.703836   4.547129
Hf   12.777122  29.866956  11.431632
Lu   -8.356526 -35.039116  -9.796614
Ru  -16.806380   4.382431 -14.389315
Gd    2.330567   0.935889  41.315899
Au  -10.098724  -7.193704 -14.717670
Br   27.164235  14.439160  19.937095
Ca   24.182399   5.232379 -37.655372
O   -36.104027   5.633748  -4.247241
Zr    5.376965   5.412269  29.606285
Ga    1.875502  -1.124341  21.218836
Pm  -15.268874 -22.053097  11.254434
Eu    8.592465   4.307669  10.484076
Ho   11.705601 -11.789410   4.049414
Ti   30.516218 -26.224826   5.856523
As   -0.497048  28.829685   2.773382
Te   -2.142269   4.633254  26.177006
Mg  -14.360082   5.187751  -8.029291
Nb    3.981851 -42.122321   2.436094
Pr   16.469435 -18.487949 -12.495695
Pt   23.380408 -23.370524 -13.358930
Nd    2.244186  16.491279 -37.129537
N    12.053298 -37.728725  -4.236735
Pb   -7.550393  -3.215115  13.681250
Po  -14.784129  25.949607  -5.303211
H   -24.177864 -20.089407   3.589783
Zr  -27.181431  27.198355   1.250931
O     9.492309  -1.562288 -21.094584
Yb   25.689910  -5.790029 -18.568792
Ta  -12.506258  23.396747 -32.045937
Sc   40.325366   3.900286  14.781769
C    19.388188  35.517464  -3.330933
H    -9.690678 -38.256421   9.323469
La   27.368824  27.811946  10.172711
Ne   -3.205946  24.390918 -20.422208
Pb    0.584844   3.885090 -24.762136
W    -7.700674  41.925946  -2.718982
O   -26.403097  19.052088  18.225833
Sm  -27.861206  -4.364751 -33.259350
Tl   22.394086 -19.255545   6.668865
Lu  -21.860992  -9.935079 -18.221822
Tb   22.607552  10.856377  33.775223
Pd  -14.772307   7.771250  12.403416
Pt  -14.496747  27.300302  32.852768
Se   24.915110   3.284229  10.182409
Eu  -14.466080 -31.321668 -17.082350
Ag   15.842827 -29.318916  30.275052
Sn   11.698336   2.571969  -2.239046
Co   23.012289  -8.364071 -24.271396
Dy  -17.160434  15.351076  17.795625
He  -14.015365  18.649592  -9.200652
K    27.276115   0.198323 -19.567821
Kr   27.783436 -13.695954 -23.044454
Cl   28.960608  24.685140  -4.197882
Tc  -37.558935  -7.325078   8.894867
La  -15.716701 -15.508278 -38.502853
Tm  -12.031022  -6.979234  41.768480
Cr   38.689822  15.327399   4.619885
Ni    3.085042   2.876117   6.361325
Tc   16.260892  15.824184 -32.040497
B   -27.444027 -26.266956   5.505939
Ga  -14.358634  -5.355184 -11.976536
Xe    4.506267  16.702512 -38.844758
Eu   37.405973  25.725978   3.869915
Ta  -13.142657  15.548729   2.149180
Ga   18.477235   0.771922  31.852133
Cs  -16.429650   8.455701  11.272442
F   -24.707217 -16.011913  33.707113
Pd   24.381625  31.634699   5.497875
Rh   -8.491524 -26.688673 -18.612851
Nb  -11.245529  -4.227941 -26.846799
Kr   42.035692  10.699688  12.315990
N    25.394215 -13.420390  33.856842
Sm   -9.752960 -27.362979  28.839616
Cs   19.408976  -8.192298   3.705121
Dy   30.006712  14.432487 -13.277951
Rb  -16.180986  10.413459  -3.769821
Ni  -13.656005  -6.036599  -5.658661
Cs    8.785812   1.948416  33.439944
Mg   -4.967478  43.316576   1.112965
As    0.240739  -3.366805   9.607919
Lu   32.260072  27.459149  -2.156106
Se   25.989064  13.821356  -5.192711
Sn   39.412328 -21.478172  -0.302277
Cu   16.101326  19.677877   8.759404
W    13.558636   8.375970  40.187464
Sr   20.366287  12.587195  23.971228
Cr   -1.236979 -39.718077 -19.384256
Tl   35.612261 -12.014841 -11.764829
Pr    3.333846 -38.184219 -24.590557
As  -19.621377  13.180156 -22.995574
Ge   -2.782500 -32.069166 -21.372023
S    -1.226583  38.644233   7.718713
Cd  -15.012999 -23.553737 -17.322816
Ta  -19.978820 -20.513511  -7.712697
Tc   23.935969  24.018828 -10.755657
F   -18.410153  18.308546  27.557687
K    27.660669   9.579660  24.791627
Zn   37.204968  -3.746532  18.832043
He   33.838725  -6.670580   5.729218
Cd  -16.321635 -12.801515  23.969724
Hf   22.967885  20.230497  -6.351159
At   14.806153 -30.481588   2.093940
V    -6.688792  24.415744 -37.979138
P   -18.164584 -14.279145  -8.510318
Re   25.468204 -15.930061  15.527743
Co   25.297818  30.766417  16.818969
Ca  -19.297171 -37.292458  -4.900430
Ag   24.053938 -17.368604  29.968856
Ag   19.727652 -16.889244 -20.608102
La   12.894586  -5.729155 -30.314223
Ce  -27.149562  -2.508392  31.530971
La    7.945046  40.364777 -16.112487
At  -24.669893  30.229243  11.983941
Ar  -18.908155  -4.790759   4.018223
I   -35.267389 -17.269680   4.888398
Re    4.742722  39.392484 -14.559260
Na  -29.965233  12.342693  15.118713
Br   20.371453  -3.027209  -2.517202
Hf  -11.043970 -32.423779   6.824837
Ti  -28.994083 -26.745694  -6.381308
Yb   -2.972449 -22.443882  -2.313878
Ba  -18.165347   1.405867  -3.915694
B     2.282643 -43.545008   1.770606
Eu    6.640023  14.419388  -4.251243
Tb    2.864180  -1.482464 -21.723721
Tl   28.072124 -18.100217   2.729771
Sc  -12.845868   2.263755  -8.410612
Ba   -2.466798  10.656528  33.910682
Ga   19.773858 -27.384075 -22.888335
Ta  -17.110777  27.768435  22.933618
Fe    1.235729  15.755975  16.418061
O    19.904883 -11.404658  17.050710
Ar    6.703914  19.808925 -23.542473
Ho  -23.837271   5.252372  20.685250
In  -25.784971 -27.372771   4.143183
In   31.234104 -21.516359   3.761957
Be    7.890218 -18.811558 -10.124600
Fe  -33.189654 -10.828464 -17.414684
Re    5.212083 -17.480168  -6.550209
Eu   -2.135256  37.628235   6.589496
N     6.406997  33.773944 -25.518866
Br   18.079974 -27.612221  -9.668651
Rb    1.547631 -17.533797 -27.630357
P   -15.841244  39.532674   3.825400
Nb  -11.382921 -22.679570  -9.042146
Ru   -8.834052 -15.205099   8.731457
At   18.950828  -2.767067 -33.897956
Sb   16.225590 -16.023202  -4.334862
Sb  -19.411384  -8.701972 -28.581208
C     5.221585  21.418985  21.541229
Mg   24.717455 -14.588344 -18.926362
Mo  -12.429434  12.812225  -2.851948
Ca   -7.796167 -10.335127 -33.913188
Ag   18.191613 -26.884819  22.317227
Cd   16.084931  28.676143 -21.376137
Ho  -25.248954  11.838229  -0.869050
Zn   11.924973  -7.542333  37.877420
Se   21.025121 -14.314054  22.585663
Co   24.157418 -31.257571  -4.257364
Ne  -20.581088   5.135253 -22.561039
Fe   16.010202 -31.515753  -8.024906
Ca  -10.490221   1.814171 -37.992320
V   -27.025790   5.418847  33.078953
Se   20.342031   1.787977  24.064511
Pm    1.455341  27.564088 -10.856618
In    4.264292 -16.964800  22.814476
Br   32.307361  28.333535 -13.394671
Sm   17.300057 -34.252384  24.315666
Sr   25.178912 -27.335753   7.980069
Os   17.930099  -2.078447 -15.710311
Ce  -24.466947 -27.381388 -15.113604
Pt  -17.630398 -26.592357  -0.385687
Lu    2.461043 -18.728139   5.499147
Ti   -4.790711  -7.618216 -25.926080
Ga  -18.562856  -3.403926  32.651738
Er   20.302783 -23.253206  -2.186122
Co  -16.461421 -22.357529   3.798770
Ni   -7.562111  41.328311  -9.691706
Ba  -34.815938  10.801130 -19.162147
V    23.494602   6.605514  34.251042
Pb    5.206879 -20.798062  -0.959948
Au    7.224919  14.470289  -2.361891
In    5.413888  36.111309 -17.624367
Br  -14.739706   2.406146  28.649211
Pd  -21.884691  -9.956533   8.833883
Ce  -16.308397   3.192013  14.843934
Os  -36.451446  17.585333  12.081630
V    10.635515  35.738089  18.140440
Ar    0.527156 -33.439257  -6.852943
Se  -14.003493 -28.685847  10.728351
Zn   25.012444  20.089325  27.079639
Sb  -32.046405  19.958165  20.351236
Au   30.011381  28.647924  10.824736
Ce  -14.584392   7.434301 -25.633487
Ir   17.622531   8.174267 -15.425814
Yb  -16.798721   7.797544  21.096762
Fe    4.806750  40.093048  15.136861
Cl  -17.446844 -21.216908 -31.571286
Rh   20.028577  37.303458 -15.257012
Ru   -4.078289 -11.943563 -34.415048
Rb  -28.597332 -11.192003  -9.020068
Tm   31.737684 -15.039316 -14.740847
Ni    8.306423 -23.397158  -5.662452
Hg   37.470222  -6.520964 -10.223170
Hg    3.704349   2.389403  37.514928
Ru    4.500504  20.478031 -33.012212
O   -34.270724  13.859272   2.716674
Mo    1.351416 -25.730026  -5.005792
Co  -12.443250   4.155539   6.881880
He  -11.528080  15.238791 -13.105227
Ta    4.794019   0.636795  -5.968443
K    35.954804  18.423952  15.666094
Rn   14.137047  23.063230   8.267373
Ni   -6.183630 -34.894523 -26.896583
As  -10.886303  37.931199   6.203645
Xe   19.754165 -13.481121 -29.990023
Rn    1.807064  26.558570 -20.030781
Hg   -1.030459  -2.360130  -9.764512
Si   30.511392 -18.960683  25.034765
Sc   -1.934716 -21.977127   0.636397
Y    11.208411  28.417103  30.297215
Dy    9.745550  40.657366 -14.247680
Sm  -25.336632  22.491470   1.561295
Sc  -21.438255  11.862991  22.002899
Tc   17.898415 -21.470992  14.965149
Cl  -40.043977   0.876771   8.232770
Sc  -15.750740 -11.323715  36.438876
Mn  -14.682806  -0.754614  40.082312
Au   19.200132 -33.817125  -4.174931
Hf    8.620336   6.687464  -0.888790
Be    7.379929  10.998156  19.199138
Br    1.045379   1.664894  15.707994
Br    9.494254 -16.435860 -35.859231
Ge  -28.301250 -28.304040 -18.276516
Sm  -10.373588  -1.375122  43.106628
Zn   -4.031989 -16.549885  29.019990
Zr   14.016428   8.854604 -21.088121
Hg  -20.608064   8.118320  -6.075339
Tl    0.302641  34.002041   4.097704
Ca    0.765574  -0.061001 -21.586910
Fe    3.125411  15.453734 -22.284426
Ar  -26.999961  -8.657702 -26.425569
Sc   10.152776  30.228272  -6.378734
W   -21.502450  -2.609127  -5.585145
Kr   -2.511442 -22.895734 -10.256256
O     6.549371 -29.097424 -34.035550
Hg  -28.435939  33.240278 -11.849126
P    39.226651  17.213014  -0.163767
Cs  -18.161084  38.158878  -1.481978
Ga   18.603737 -37.118897  -1.096585
Eu  -38.299114  -2.225350   2.940639
Al    1.609953  26.573920 -24.684358
Lu  -28.901036   3.485081   6.311648
Co    5.685219  16.316187 -13.201222
Ge   12.445235  36.432353  19.830883
Cr  -16.872015  26.729161  20.439734
Se    7.264985 -11.456669  42.730474
Kr    4.816726 -27.985509  33.322350
La    7.118007  15.273113 -19.730984
S    -1.539483  10.413313  12.717713
Hg  -13.763585  29.531368 -12.325945
Ho  -18.337188 -28.927008   0.805385
Yb   -5.644411  29.777357  -7.651983
Se   26.738186   7.664503  13.442319
P   -27.152638  -7.855707 -21.904110
Ge  -25.174216 -27.105461  -6.739451
In   29.399367 -18.616696 -19.721617
Hf   22.137401  18.361551 -17.796577
Kr  -20.860466  -0.037705  27.875089
Re  -21.974208 -17.459395 -34.263256
Dy  -15.534265  32.449815 -24.602826
Ar    7.051772  37.907788  -9.919245
Ca  -15.912837  -5.927097  40.885287
Ar  -26.988162 -24.093629  -9.466317
Ar   -2.475666 -12.383803 -26.038605
C    25.301097   8.018854 -32.356715
Tl   36.702044   6.832627  -2.220978
Rn   -6.062502  28.171750 -33.631941
La  -15.741774  -1.790352 -35.579974
Co  -23.015881  10.939839   3.361193
Na   22.798902 -13.704797  30.374703
Ar   11.731382  24.453950  -2.662984
W    -3.830568  20.307890 -30.879859
Zn  -12.079291  11.853180  -7.870233
Al  -15.918880  41.231547  -9.457784
Ne  -15.868968 -30.568638  -1.874307
Ir   14.538698  26.345974 -10.181868
La  -25.831449   5.051723   5.817461
H   -13.747756  -5.737424 -18.332961
Tc  -24.280371  -0.591283  -3.289868
Ge   13.455348  28.050144  33.392223
Bi   23.628156  14.935479  21.300941
Sm   10.212731  22.729768   1.661778
Gd   -6.622853 -33.156940  26.118415
Pm  -18.081845 -29.609031  -6.016464
Kr  -14.162982 -19.050218  -9.629767
Ta  -10.829569 -39.228688 -13.098966
N     6.621575  33.655376  -6.962384
Cr   35.025771  21.236353  -6.141327
Sb  -35.154553  20.348834  -9.929717
Xe   33.873130 -25.836822   1.864688
Kr   28.561843   3.989041  -3.748409
H    29.905857 -22.961325  -8.276898
H     1.112589 -32.835340 -30.288298
Si  -20.474655 -12.151976 -24.189079
Os    2.584468 -31.182238 -22.642322
S    25.687597  10.773219  20.570512
Au  -40.916213  -4.594789  12.777596
Si  -26.287770  12.606702 -26.347352
Ir   -8.297316  29.096882  24.622924
Cl  -13.220248  13.452955   0.044619
Sb    8.508787   4.961800   8.770504
Tc   10.259991 -11.592383  26.910910
Ge  -16.045706  22.753534  16.762360
Tc   -5.511523  36.164632 -17.798559
Br  -16.410653   6.302820  25.577524
Ag  -11.197676 -31.607328  24.060974
B    -5.006186  20.549756  24.970034
W    -0.302669  32.849805 -19.115395
I     6.093392  26.467210  -0.647196
W   -25.173543  -9.230315  20.237825
Hf  -41.050916  16.464780 -10.790172
Kr   24.532292   1.829818  22.147596
Na   20.202040 -23.536183  33.028265
C    25.081024 -11.618815  19.373438
Lu  -32.865934   9.251269 -25.546222
Tl  -20.571796  24.677788 -11.889064
N   -31.285041   3.277367  17.428836
Ga   -8.189598  26.453005  34.608967
Cl   11.420822 -29.746135 -25.962418
Ag  -10.523556 -16.870993 -25.529805
Bi   28.020123  -2.890201 -29.880759
Nd   23.021058  -3.260756 -22.035408
Bi  -18.201380 -10.894355 -30.070300
H    -4.839939   0.916591  30.061655
Dy  -35.123125  13.977007 -15.504085
W     0.532655 -15.374845 -29.317866
Br   41.099264   9.794553   1.332320
Os  -25.059791  -6.149193 -31.592801
Er  -17.274331 -20.376808 -31.799083
Ne    2.140506  22.746813  17.427864
Sb   11.648490  43.115678  -4.158554
Rh   20.430308 -13.018802  32.477635
F   -12.009372   2.572555 -28.373943
Cs   -7.197902 -40.689985  -4.759511
V     2.801589  -1.992878 -31.115418
Sr  -21.478754 -16.228444  26.732625
Po   36.230865  -7.097328  11.159442
La   13.959933 -10.052861 -27.841607
Tb  -20.524827  24.726290 -32.363884
Pr   14.511027 -30.137577 -30.186171
Au  -17.631832  -9.855186  25.594908
Pr   22.306108  -7.714312  -9.828632
Ag  -35.616529 -14.972049 -17.722540
Au   19.366255   8.908427 -38.373788
H   -11.856129   3.439357 -20.492903
Lu  -14.201731 -30.274759 -29.274779
Ne   19.460436   5.255024 -38.290242
Na   17.030178 -19.277518 -16.244528
Gd   31.762150  30.401034   7.811363
Lu    1.054186   7.811545 -17.113636
Lu    2.991278  -3.387329 -26.648739
F   -11.723460 -32.517005  -1.028931
Os   -2.194695  25.450810  13.695646
I   -23.225190 -35.151797   7.623915
Kr    1.484324  38.579590  11.684878
B   -24.426533  27.569791 -23.309587
Mo   18.925616  -8.862431  31.826766
Hf    8.567031 -11.076646  -7.716759
La    2.879371 -26.435236   0.547480
Yb   22.396684 -16.167895  31.746316
Ir   -3.004244  23.888645 -38.724150
Te   16.050547 -37.850154  -5.989428
In    6.431606  -7.049668  28.014848
Hg   14.366832 -11.638013   3.939651
O    24.812836  17.966245 -21.604073
Ce   14.379533   5.557791  11.102618
Dy   -4.921234 -33.037773  -6.813961
Br  -41.346374   0.006207   7.687321
Cs  -12.150281  -3.523374   8.820639
Sc    7.988100  27.066392  -3.113064
V     4.234428  -0.752685 -35.691567
Ir   11.850932  12.323227 -33.916253
Mg   -4.519146  -1.855399  26.448307
F     8.901237 -11.121968  42.879094
Pb  -35.818518 -20.210244 -12.591507
Pr   -2.923110 -25.899871 -36.203837
Mn    4.471327   6.902059   7.540898
Zr   -4.775817  17.782692 -21.312214
Ho   38.514121 -23.729488  -3.730553
Rh  -15.786773  33.001508  20.763908
Sr   16.973954 -14.506026   9.360850
Ca   29.198317 -12.471659 -22.691723
He   -5.585525 -13.280201  28.345604
Y   -15.267013   8.688453  34.809155
Co   30.017615 -19.488651  -8.138765
Ta   42.006395  -4.865962  -1.027745
Mg  -14.482048  -9.091372  31.719977
Rh  -38.383085 -19.857310 -11.135203
Se   23.730741  31.401144   8.525371
O    18.228088   7.052830   7.638021
Ir    3.594908 -17.006656  19.511550
Gd   20.615620  15.674334  14.166256
Pb   -3.920941  10.374291  27.020105
Na  -10.371424   5.588958   1.419547
Er    3.970427 -16.054375   5.481692
Ba   18.343752  -0.383307  35.233708
Eu   13.954720  -5.906310 -38.922114
Ta   -5.693105 -12.431560   5.831561
Lu    0.029301  33.766116 -26.739208
Ne    5.530766  30.041397  29.690518
Cu  -23.534662   5.787256 -16.484380
I   -30.782303 -18.201289  15.744875
Zn    4.163064 -21.216969 -11.962206
Lu  -13.499864 -32.628971  16.862167
Sn    6.122711 -15.380727  18.301670
I    -8.173646  37.915727  12.929935
Nd  -32.534911 -28.032802  -5.508399
Hg  -19.572302 -29.665634  12.946483
Sm   -8.172531  35.525426  17.531792
Cu    6.914622  20.222972  28.400642
Ni   -3.231959   3.210263 -21.454137
Mo   26.736031  16.768400  -5.897453
Ar    1.448334 -17.514767 -25.818104
Ho  -14.731479  -5.886698 -14.082547
H    27.200064  26.478445  -8.737184
Nd  -10.556057  -9.933085   6.187659
F    35.813818 -13.535785  17.145986
Ce  -24.910154  10.289891   9.525064
N    28.242577  18.477853 -21.418337
Ce  -13.602745 -31.291386  12.336724
Mo   24.899265   2.623641 -23.583945
Tb   33.565964 -29.041475  -0.928520
Nd  -33.898965  24.447384   7.489735
Kr   10.931578  -0.999028  31.084767
Bi   12.181765  30.554693 -13.382712
Y    -7.680509 -29.708316   0.377910
Pr  -12.708597 -34.792936   3.286669
He  -10.608924  14.026672 -30.907257
Ce  -17.196981  -2.078169 -20.556805
Ce  -18.725792 -14.165335 -32.006239
Pd  -33.961003  -0.775286  14.818448
Pb   -5.156314  35.627917 -26.922208
Zr    3.891749 -27.362060  -0.232446
Hg  -18.214151 -13.861849 -25.632804
Dy   33.385895   8.184794 -26.643989
F    18.454777  18.347526 -32.850559
Rn    3.440500   2.888161  -9.422027
Cl   28.853921 -10.022076 -11.546811
Mo   14.344393 -36.547076   0.723292
I    25.264630 -14.999068 -28.422264
Ta    0.212183  -7.583445   5.086929
Co  -21.836850  -8.706597  19.336000
Nd  -33.668263 -16.635465  -7.796366
Pd    5.181776  -7.517008  -6.896615
H    29.690922 -22.466145  24.254826
Ge  -21.263749  17.380369  30.906805
Sn   -9.876835  -4.270358 -11.681624
Os  -27.297297  26.695400 -22.979202
Pt  -11.696299  13.604435 -17.631443
Ne  -39.299082  20.310109   0.234708
H   -22.171347 -32.521473 -13.280235
Xe   26.271981  21.526841 -20.811985
Ne  -27.588325   3.374349  22.145532
Zn   15.424036   0.679337 -19.267931
Tc  -25.902072  -7.328855  36.811363
O    24.730171  35.889783  10.372124
Pt   -8.812614 -19.566949  24.254334
Yb  -14.867771 -11.535361 -16.871956
V     6.405513  -1.207078  37.968741
Nb  -18.689122 -30.378132   7.794541
Tc   12.574582   0.386127  28.949670
As  -15.300261   4.475111 -30.603184
Ge   44.525506   9.055812  -3.274210
Hf   22.267750 -27.601925  10.990638
Yb  -12.498146 -14.148061  10.483433
C     4.358913 -26.795259 -17.893033
Cr  -10.412304  17.713052  13.366594
Mn   12.971555   4.744064 -20.920863
Se  -28.237000  -4.089165 -21.517849
Mn   -6.654723  21.853050   7.211246
Eu  -18.267235   2.104477 -34.609272
Si   11.390010  11.095537 -17.977877
Rb   -2.952670   9.680142  -0.198864
O    29.062716  13.162294   4.306950
Pm   -7.754583  -1.016425  12.664458
Xe    9.604606 -11.127997 -24.320233
Te  -14.695255  14.354364  24.725641
Mn  -20.123510  15.052216 -15.182196
Pt    6.737222 -19.734353  -6.256492
Ta   18.053715  12.298544  25.593183
Mn  -16.529664   1.090629 -28.127826
Zr    9.235779 -23.943317 -14.991498
Be    2.465518 -26.967849  19.945182
Br   38.677980  -1.639885  20.910356
He   33.585644   4.002477  23.923579
Nb   21.373007  -8.398938  11.959283
Sc  -13.462070  26.524133  24.076789
As    8.123368   7.073844   1.186511
Sr  -27.842006   9.908832  29.060732
He  -14.548074 -30.855395  10.858591
Ho  -26.704820 -27.237751  -7.153390
Cs    5.426830 -12.691164  -5.022679
Tm    1.341256  -5.729127 -22.877374
Mo   21.336407 -38.015943 -12.422651
Ca   34.045412 -12.111051  -6.271820
Mo   -7.178180  -1.276568   5.607729
Dy   15.598680 -28.955700  -0.699217
Tm   20.350305 -13.615047  19.082467
Sr   -2.364635  -2.326421   7.488120
Dy   23.807399  -4.362087   7.277563
Pr  -33.496022   6.617594  28.756951
Rh   21.644088 -22.011688 -20.329688
Zn  -36.040916 -22.906070  -9.671349
Dy   21.062161  25.331307  -7.028979
N    10.026406 -39.579857   3.538015
Br   25.589093  18.989466 -23.910671
Pt  -10.127536  23.080477   9.098270
Cd    7.336962   5.266313 -24.579624
Co   -7.211024  15.127716  -7.687742
Sc   30.048612 -15.212383  13.456844
Na  -30.091854 -23.120851 -20.824850
Rb  -11.428717  -2.372869 -32.813105
Al  -19.955660   9.485025 -22.482863
Y    -1.453347 -22.659387 -18.785897
W    11.401704   3.397064  17.150018
Ru   20.522592  14.485818  10.045147
Al  -32.694060  24.446440 -12.713535
Se   20.769453  15.622615 -13.827905
Tc    0.221187 -40.896083  -3.308630
O    -2.652094 -14.108823 -18.479005
Ge  -25.591542  15.966012 -13.143022
Nb   -4.110084 -25.939110   5.777885
Mo   16.382930 -22.583964 -25.481592
Sm  -33.354596  -1.603791   7.063905
Be   28.527991   3.174216  32.674295
Nb   28.314032 -22.993672  -1.684304
Cs    8.173720 -22.916676  -2.124237
Cr  -21.722816  -4.395993  34.929919
Se   17.792023   3.923855 -16.135243
Mn    0.712841  -6.188360 -43.141143
Nb    2.676860 -20.862977 -16.441072
Br  -23.478989 -17.363292  25.018485
Au   -6.856644  -2.152866 -12.676112
Sb   14.748149   4.196399 -23.717872
Si  -15.368781 -17.836478 -13.131223
Sr   36.994602 -24.486507  -9.304161
F     5.645117   6.251862  -1.314880
Xe   28.311838 -34.297171  -0.923762
Bi    6.524120  13.920430 -39.119520
Er  -31.769827 -20.508162  11.646982
Kr  -31.714015  16.618410  -7.528237
N    17.478935  22.536697  12.517566
Si  -38.808869   0.450054 -15.690699
Tm   -0.016080   7.872033  27.186392
Mn   30.317987  20.025746  10.236937
Nb  -40.189567 -11.851496  -6.952108
Te  -10.456941  -9.657564  33.956667
Pd   16.498349  17.614536  -6.029784
Po   -4.949914   4.568729  26.364009
Bi  -13.449800 -15.717561 -30.240694
Tm   19.702722  38.342551  -1.225880
Ho  -42.874652   4.235112  -3.492596
Ge   25.850614 -22.724269  -8.345284
N   -21.896246 -24.236826  12.799729
Se  -17.844331 -30.611197  24.665879
In  -20.538589  -1.347235 -33.559776
Mg   17.108958  34.350864  12.010165
Ba   21.150874  19.686881 -31.040986
Zr    8.343170 -12.015103 -35.807064
Ar  -23.806676  -1.981379  15.970907
Hg   19.109634  30.006676 -19.201740
B    18.283242  17.519863  32.560449
Tc    3.390065  32.450138  26.488712
Ni   -1.141873 -44.161320  -1.699837
Mn  -12.552308  20.436462  31.128990
F    -1.771571   6.689258  30.106835
As   10.067217  -7.503317  22.568772
Fe  -28.259052   8.056353  25.809017
Nd   32.416011   8.786839  12.238369
O   -30.332007 -11.143717  16.730291
W    11.877541 -20.395220  30.011564
Ge    4.418192  34.810817 -13.070890
Cd  -24.650969 -12.677127 -17.401672
Hg   -5.692911 -40.641047 -14.363357
V   -19.886761  17.465254  16.297674
Li   -7.028763  12.729662 -20.533005
Cu  -29.724548   4.783019 -14.889010
Lu  -24.644449 -29.931744  16.089492
Ho  -16.784717  -4.444466 -10.483919
Yb   23.348537  25.087332 -10.676877
P    21.896913  20.311274 -15.547685
Be   20.378450  -5.028424   0.759930
Ti    8.337470 -29.976737  17.160020
Re    4.890914 -13.519258 -22.958925
In  -14.444433  15.681429  14.322355
N    -5.677297   3.821808  22.556160
Tl   14.232632  -4.550184  42.011276
Xe  -41.356760   7.161323   1.781873
Si   31.641696  -4.328743  14.060607
In   37.702730  18.199256  -9.684376
Hf    9.573446   4.709856 -13.224507
Li   -6.911750   2.414842  33.072862
Nb   30.125527  -5.951306  -4.339448
C    13.371992  24.025016   3.159944
Cs   18.354058   4.050405 -26.872699
B    -1.058397  -6.189384   7.373559
Li  -21.969737  23.240959  -6.485394
Ne   29.530616  -7.425016 -27.001736
At    7.754835  36.338337 -24.779902
Zr  -29.586004  27.541574   4.837962
Ne   24.496877  -9.348331  30.805091
Ce   23.569143  -8.730918  24.653849
He  -21.817438  -8.719454 -18.230493
Gd   13.628200  31.750451  17.403938
Tm   39.296797 -16.178451  -3.831729
Ga    9.363668  41.265486   7.515727
La   25.264309   7.017712 -16.184881
Ar   -5.202908  19.945150 -11.290176
Cu   41.611418 -15.096067  -7.754526
F   -17.583741 -14.037698  36.644940
Hg   -7.579038 -36.729151  17.904210
La   18.335494  36.565361   2.795843
Tc   11.426016  32.622237   6.430628
Mg   10.011938 -28.640940 -16.491959
Ga  -38.668768 -22.069529  -3.404590
Cd  -31.486629 -11.545111  23.028246
Pr  -12.314431  15.026802  38.182233
Mn   22.623897  24.746647   3.360112
C    20.801453  -6.348919   0.335881
Ar   33.921545  -8.038182   9.357147
Kr    6.903864  27.109132  29.318306
Zn   26.642918  34.636981   1.416340
Te   21.425462 -21.638846   0.520960
Rn  -28.363274  19.181284  13.222180
Bi   -4.339295  26.168620  30.551202
Pt  -29.414584 -18.838359  -7.998898
Tl  -21.353176   2.229887  21.421340
Be  -24.690833  31.171411 -14.869695
At   28.435118  16.437871 -26.619663
Au   34.077639 -21.374980   1.802632
Ru    9.454678 -14.788633   2.039702
Er   -7.502935  23.041709 -21.360539
Pd   -3.631464  -4.793389  34.730992
Al   13.405709  38.249692  11.041221
Au   23.542227 -28.226409  27.032162
Eu  -39.386126  19.074001   6.784391
Ca   35.521854   8.139456 -13.862242
Kr   -3.029113  18.831451  32.203239
Tm   -2.914007   6.145781 -36.520473
Pm   22.816027 -15.457880  31.116339
N    31.148842  17.233266  -7.191956
S    -9.371012  -9.908515 -31.959367
Pb  -21.410942 -19.360259  -4.389180
Pr  -17.176691 -24.247929  -8.500739
Mo   -0.679296   6.999059  -4.319001
Ba   10.322073  17.330241   7.839575
Rh   16.832510   8.881536  37.809306
Ga   -1.352884  30.133551  12.120231
Os  -17.482244  -1.995841  25.827155
Sc    1.240326   1.827471 -42.767306
Os   -9.818230  -5.398046  -4.063664
Gd    6.782282  31.577751 -24.907435
O   -36.774402  20.335147  -8.483424
Yb   11.662060  -2.660383 -33.203809
Dy   14.295169  -8.386164   0.698728
Zr   16.877945  -1.415741  -2.402331
Al  -27.542429  28.509145   1.188976
Tb   40.879438   1.522726  -4.543856
Zn   40.214531   0.643209  -6.488434
Rb   12.850697  39.514629  -0.058776
Al    7.524954  15.912618 -22.472488
B   -12.037523  31.986997  17.219569
Sc   22.178347   9.608610   0.779026
Te  -18.596942 -20.018981  33.588084
Cs   -6.567162 -27.241412  -1.371485
K    -9.848737  14.452657  15.939277
N   -42.722530  13.550739   1.953042
Zn   15.751016  31.964555   8.818649
C    23.583881  25.348486 -24.927654
Mn   -3.779323  22.089153 -32.150228
Ga   -4.993986  33.224900  23.462664
Dy  -23.661264  -7.993273  20.639833
P     1.910592  35.204024  10.093302
V   -17.969034  38.508362   0.116046
Xe   12.713231  20.626367  13.581604
N     9.849806  -4.871724 -41.477261
B    25.297279  19.327991 -25.487669
Ba   27.531053  -4.796022 -13.967051
Tc   30.050193 -16.951624 -22.862564
Tb   11.798088 -17.009458  12.786307
Ir   27.627033  -4.784528 -20.854348
Ar   -5.872295  40.621416  -5.637674
Mo   13.064834   8.384883  -6.731962
Cr   11.385966  40.852513   6.588543
K   -16.707672  39.464621  12.427816
Re   -4.380434   4.148284  24.453548
In   34.890300  -8.163814 -19.982931
Mn   23.945730   0.255477 -17.623259
P    -6.178011 -25.481485  10.480708
Li  -27.009457  16.107809  25.188310
Ir  -29.622458   1.545121 -23.678548
K   -16.028613  22.652851  28.758714
Pt  -22.016488 -26.419321  28.128927
Ag    3.504845   9.671816  32.629088
P   -27.094061  -5.412085 -35.919531
Cr    1.972745 -30.058179 -14.546867
O    32.154676 -10.784588  24.242716
O    25.801047 -14.813679  16.851286
V    33.621607 -10.543619  14.193362
H     4.581343 -39.382598  18.529346
Os   32.897552 -12.485404 -27.613006
Hf   24.663194 -30.072507  -3.227578
K    11.022874  -7.607954  27.753155
Nb   11.970416 -23.219495  25.586953
Pb   -0.143890  13.617920  -2.485512
Ga  -43.917927   0.141537   7.550856
Tl    5.594010  27.170846  10.856559
As    9.606748  26.202071  15.788577
At    9.521974  -3.195532   2.440550
As    2.863393  -0.055837  27.441740
Be   10.207676  -3.708906  21.318129
La  -14.381533 -37.556699 -20.737071
Tb   11.734839  22.978500 -18.289213
Nb   17.636146   4.322991  29.807128
La   21.718370   1.144617  -7.215665
Ti  -22.602431  10.723691 -11.303753
C   -10.774019 -10.976791  41.448068
Tl   -1.684812  29.306326  28.026813
Sc  -28.427075  -1.530067  22.292879
F    30.752246 -31.287007 -10.524164
V   -13.612249  -4.895645 -27.566386
Os   11.992105 -33.617653  -3.106337
N    -5.502812 -12.232806   7.877725
La   35.710930   1.222526  28.417656
P   -29.832983 -21.537990  18.608158
Dy    3.723632  -9.561298  26.016985
P    14.095449  15.226319   6.327464
Ti  -15.920834  -6.623561  -1.611440
Ga   18.500346 -34.501192  -3.097076
Gd  -23.310729  24.384036  -3.527629
Ca  -38.847970 -11.811581 -11.593845
Sm  -14.945865  25.557224  16.504505
Lu    3.129489 -20.918029   2.024226
Dy   20.201494 -32.860856  22.031665
Ho  -18.180873 -33.227698  11.925861
Ag    2.632364  41.228974 -16.224177
Cl   19.249604   6.023048 -20.551329
Pd   -1.587563  24.656423  16.511718
Sm    1.009024  20.214424  -2.612043
Na  -35.526194   9.041490   1.904649
Yb   28.529874  11.793734  -2.373182
He    2.434391  19.841642 -36.115817
Nd   -4.212925 -22.118333 -19.433991
Ru   29.420020   7.596385 -10.363905
Kr   11.041085  30.438290 -28.133654
Pm  -15.920093 -32.550668  -7.874515
V    20.739524 -19.782529 -30.303455
Rn   33.573303 -17.182338 -12.615027
P    -7.097675  -0.972597 -17.840132
Co   -6.686683  26.829737  -0.612843
P   -20.505834  -1.247110   2.288524
Pd  -12.450568 -11.103622  -9.546384
Er   27.605977  -7.243948   8.736783
Tc  -13.430744 -26.818891  28.635124
Cl  -32.069269  -5.450564 -17.125430
As   18.561678 -32.873635  -8.379611
C    31.523361  -3.923575 -30.192847
Po   11.528259   3.018544 -29.161590
Na   17.755539 -10.003202  24.421319
P   -11.635770 -23.021686  16.266029
Re  -11.429978  -1.920141 -13.010530
Gd   -5.685814 -15.872318 -30.917649
Lu   10.227766 -36.809194   2.669264
Ce    1.615835  39.393134   6.057339
Ti  -24.902882  -5.959975 -35.148885
Zr   16.628500 -17.496267 -19.589851
Li   28.000600  22.283605 -22.055072
Ar   13.581113   1.364684  -7.808531
Tc   14.713665  10.386321 -12.146979
Rb   25.800048  -5.247949 -27.935087
Pt  -31.658502 -13.888602  19.774173
C   -17.469020  19.060150   7.824115
Ge  -20.802349 -26.790520  27.500433
Y    22.189968  37.334842 -11.121946
Kr  -14.653996  14.916953  14.948611
He  -23.764069  -3.580764  29.912248
Ca   20.902137 -32.504754  -8.018736
H   -13.948949  15.737439   4.514352
Ba   30.509211  12.147086 -29.123439
Pt    8.177980 -11.602004  16.257306
Mn   -3.375134 -13.174782 -16.245472
Tb   27.035415 -18.319502 -26.996683
Ni  -13.417163 -30.954753   8.599722
B   -11.887628 -10.706597 -10.430675
Br   11.542649 -21.518335  22.269467
S   -22.065830  26.867873 -14.099465
Cr   14.730516  -4.828273  36.216868
Po  -27.207332 -15.707398  24.014955
Ge  -22.765168 -31.983402  20.729919
Re  -31.407259   8.986634 -14.518076
Pm    3.992766  -2.672310  25.612040
Nd   -9.222361  13.560423  26.803727
Te   14.456910  13.437069  30.145590
Ar  -23.987120   8.341400  10.668714
Sb   -5.437705  25.848158  27.229563
Ba   -3.561577  12.959604   8.571090
Ga   11.622903 -14.783214 -12.075099
P   -13.055560 -37.799277 -21.993744
Po    1.170255 -34.999772  -9.739303
Zr  -11.186689  32.983131  -5.719417
B    -6.565640  -5.610588 -20.738812
Os    9.254172   6.743048  12.388089
H   -20.404473 -30.563683 -11.745940
Zn   -6.853352  17.549187   8.406548
C   -25.763145 -36.466023  -5.400960
Mg   24.154406  -6.641330  28.317012
Rh   27.237646   4.499974  -9.740279
Sn  -18.796177 -21.187759  15.005295
He   27.250757  32.320941 -12.484116
Ba  -22.378277  -0.533665 -25.651838
Er   25.051313  14.546192 -11.814022
Rn   -4.453551  -7.959039   0.193597
Ce    0.424105 -12.185955  -8.271082
H     3.867561 -18.548554 -29.288977
Nb  -10.564269   5.941496 -34.592675
Zr    9.681212 -16.880928  12.200129
Ce   10.368523  21.654782   9.105772
Se   16.473699  14.182997  16.479177
Br    6.868177  27.056550 -25.609234
Sn  -23.134282  31.605034  10.896112
Xe  -21.993550 -25.958142 -30.217583
Cl  -34.913076   9.286349   5.903051
Tb  -11.875888 -39.354137 -13.590433
Ho   31.505160  -8.740058  22.513163
Rh  -17.630075  16.001907   5.248654
W    14.475747 -18.537158 -24.885650
Cs   -7.977041 -38.183511 -13.011176
K   -37.875701  10.240863   4.920867
Ta   21.988658 -12.014509 -13.080467
Gd   -6.580466 -37.907235  -5.542569
Fe  -41.863833   8.671135 -15.001633
Ti   -2.627853  14.718723   8.946310
Ta   44.948034  -0.378511  -7.160957
Po  -41.744499  -5.892161  11.884640
Pm  -30.017129 -29.409647 -10.276938
Sc  -15.559664  -5.247747 -21.521030
Mo  -29.397529 -15.954460 -20.717991
Zr   -7.307936  37.082860 -21.748121
Cd  -38.510832  12.242634  15.003098
F   -27.692514 -21.362880  15.822567
Mn   -8.497027  10.395967 -24.532301
Tc  -23.973880  27.561576 -15.587329
Ca  -16.111964 -33.622705   7.717138
Se  -10.908760 -13.113413 -28.792946
Pt   10.024561  36.175866  22.099379
Al  -19.058211  -1.359679  30.564377
V   -37.838373 -20.158270   2.775758
Cd  -31.053044 -22.190511 -23.852379
Co    0.269206  -0.538525  33.643545
B    24.834101  22.916350 -13.875236
Rb   19.318127 -24.055323  16.239638
Ti   24.692623   6.334422  -6.612021
Yb  -18.968652  27.988359 -30.078717
Nb  -27.930995  10.815339 -26.139292
Mn   11.557839   3.260864 -43.412083
Po  -17.123229 -18.687593  -1.447951
P    22.985355 -22.513296  -1.778974
Yb   11.999465  -5.765295 -32.017905
Nd  -13.626935 -29.801958  13.940527
Sb  -37.361876   3.520534  15.471119
O   -40.637199  -3.943010  16.812345
Dy    8.593860 -29.715340 -28.699715
P   -15.902541  -5.661016 -12.925155
Er    7.772875 -15.386037  35.684999
Sb    3.233137 -25.789527   2.792539
Os  -10.024755   2.513195   3.332071
Si  -17.724423  20.406305  28.641789
Pm  -12.528589 -31.141398  25.282388
P    -7.055723  25.905307  29.586692
Cr  -28.695470 -12.135519 -14.363036
Pr   12.439959  29.509411 -28.466096
V     2.138120  25.901947 -35.276689
Pr   33.548169 -28.265537  -6.010708
Tm   33.788435   5.756467 -17.922252
Ba  -28.168544 -33.535963 -10.152643
Lu  -25.818361 -32.273589   4.919050
Cu  -33.521816  16.396038  19.242130
Pd   27.705064   4.276830  28.580864
Pt   -3.073403  11.306193  25.070294
Hg   -6.136145  36.016658  19.369410
Ge  -25.902341 -11.393110  -4.135375
Ni    2.380251  12.397268   6.271885
Pb   10.958165   0.120272  -1.478201
Mo  -16.726316 -35.134624  10.198505
F    22.032512 -14.117445  24.127457
Sr    4.879216  -0.651472  30.721966
Yb  -22.489332   3.150575 -16.116323
Ag   -2.178174 -19.632687 -14.710966
Ta  -43.816048  -8.781294   1.649488
Pr   21.789504 -21.868807  29.069460
Eu    2.135998 -16.098427  32.053499
Hg  -28.434017 -13.854191  10.126933
Bi   21.545994 -19.915740  24.886979
Ir  -21.232436 -25.089310 -22.476482
I   -29.057200   8.997241  -1.198965
Fe  -11.107388  37.042787  -3.562735
Nb   -5.436969  -9.638659  -9.367565
In   30.300871 -27.591522   6.633803
Rb  -27.516158  -8.176347  14.939768
Kr  -37.255544  10.527475   1.716444
Sm   14.023069 -21.311905 -24.528772
P    11.785417  -0.342803   4.126265
Cu  -23.802152 -36.530612 -11.157673
Pb  -17.436453 -19.381601   0.323068
Zr   34.818722  20.414952   1.603328
Nb   -9.998590 -17.696602 -32.372090
Sm  -21.689808  18.934422  -3.389384
Rh   -3.797770   7.495234  13.198478
Hg  -22.803672  -5.771578 -37.612675
Ne  -14.842909 -10.337196 -28.136858
Ni   18.199041   8.904102 -36.996409
Nb  -28.166771 -12.452194   4.686340
Re  -17.468815  18.572144  -2.130097
Ru   23.440427   8.939218  21.940256
Sm  -31.118369   0.651540  23.959672
Zr    6.097119 -18.464563 -32.003275
Na  -26.426564   7.859173 -24.278039
C     4.889680  28.779938  -4.311824
Zr  -41.193699 -10.021756  -5.439187
K   -27.656387   7.021509  21.769090
Rb   13.345282  13.016344  23.405513
F   -35.296387 -16.030843   9.946317
Re  -40.739804   5.420015   3.412996
Hg  -15.249851  31.303591 -16.989281
Ru   11.176200  22.517570  -4.886486
Tb    1.041082  34.577154 -12.722747
Cl    5.089643 -26.148928 -20.655235
Sr  -25.140343  -9.719689  -1.599999
Be   33.674333 -22.766999   1.579409
Ho  -14.295357  15.154119 -20.317167
Eu   11.735413  14.832680 -33.121716
N   -18.644126  15.429342 -27.275535
Y    -6.851745 -17.888746   6.540036
S     4.505556  29.489075 -19.051117
Yb   -7.804212 -25.776335  -7.908398
Os    4.271834  12.833911  22.155825
Fe  -19.305300  26.702882  22.189341
Co   22.236458 -13.713660 -25.338840
Rn   31.609319 -15.589440   1.002151
Ce    4.479078  27.937103  20.362195
Pm   -9.452054  44.483830   1.125413
Xe  -20.359058 -34.846947  11.042039
C    20.098442   7.783700 -30.504764
O   -36.865554 -12.985853  19.645711
Sr   36.822162   6.126302  -6.311988
Pd    9.953718  -6.762024   5.103922
Pd   11.129350  -0.849228   9.185251
O     4.605174 -16.251369 -29.740828
Cr  -11.827438 -29.415824  -5.116533
Sm  -35.872763  14.843214  21.921292
O    -2.389633   0.779925   8.800502
Po  -15.135575   4.968660 -12.545484
Al   27.747652 -11.969450  27.664193
Ne  -15.991425 -21.366514  17.910026
Lu    6.725874 -38.622242   7.922929
Tm   15.356587  -7.500247  21.769692
S   -13.665546  15.719674 -34.654249
S    44.535551   0.714054   3.367897
C     6.759761  -8.303314  35.766765
Si  -18.206464 -31.957454 -10.944398
Cs  -23.396676   7.226034  19.538614
Tm  -14.321061  24.752298 -19.964982
Li    8.524245  22.536962 -35.515941
He   30.064162 -18.659130 -13.785581
H    27.836323 -22.118013  -0.674008
Re   12.727415 -15.158518 -10.951671
Mo   17.624504  22.722902  16.643356
S    21.933027   1.643373 -16.450849
Ni   13.520623 -27.282368  -5.099019
Ta   36.506594   4.367573 -23.661304
Mo   -3.180789 -37.418544  19.725014
N   -31.165611   2.552941  10.220343
Xe   22.148860 -32.473293 -12.605607
H   -14.591947  -9.109205 -26.601130
Sb   14.995979   1.124475  32.786963
In  -19.656274 -18.993746  12.357951
Nb   24.433477  12.856901  -8.928126
Ag    7.122792  11.197047   5.719368
Fe  -27.061681 -15.446359  19.890978
F    14.885421  12.573235 -23.849584
Te  -24.092940 -34.363143  -0.355932
Tl   11.252803   4.964058 -29.717622
Tb    9.697454  15.596956  -7.213593
Sm  -29.896187  28.990723  -8.270457
Dy  -11.212421  24.222118 -25.809969
Mo  -34.885454  22.392960   1.309102
Cs   -7.923343  21.677054  30.468831
As   19.493795  21.672156   2.247828
Sn   35.373442  -8.389161   6.389148
Cu   21.699467  31.729110   9.515325
Xe  -11.829520  35.762323   9.818762
Hf  -21.080065  37.567163 -14.126525
Ca   -2.808299  18.157645  41.597363
Zn  -33.691635  12.489987  -0.445975
Pt    5.860972 -14.829293   4.971953
N    13.972330   4.416806  19.935184
Sc    2.994840  37.157430 -19.320625
Yb  -16.253660 -19.919978 -36.727373
Ag   30.273003 -28.218117  -3.213212
Kr   -9.257776   0.518798  16.923678
B    24.540988  -6.771153  24.578906
S    26.726747 -33.037730 -12.957915
Y    17.860681  36.037132  20.933516
Eu    1.942112  -4.846993  36.017773
Xe  -34.217753 -26.048142   9.746818
Y    29.677310  -2.086531 -19.333746
Ti  -19.634246 -12.135265 -36.557756
Ga   -4.038213 -25.644563 -21.637344
Ir  -21.885660 -15.293476 -17.514356
H   -11.845231  -3.977066 -27.347461
Na   -3.027663  15.373881 -26.361868
Co    2.358041 -23.997535 -33.564329
Kr  -39.664015   5.563079  21.788105
Yb   -7.287982   6.779983 -12.872225
Ti  -24.138123 -27.053142  25.445849
Sb   17.661279 -28.754736  28.791633
O    19.421840  10.452326  -9.269791
F    15.314327 -23.633680  20.560268
Zr   -1.764452  -0.855368 -27.496979
Rh   33.690975  12.605343 -22.910491
Zn   13.074793  22.582331   5.229456
Ge   22.412426  -2.894540  -9.844713
I    -8.971743  18.823279 -26.583745
Rh    5.493894 -25.330533 -26.680529
Y    -0.123048 -15.287429 -21.730889
Rn   28.773040 -27.776962  -2.543797
Ba  -26.328112  35.953329  -6.855064
Ta    9.593111  34.718953 -27.951436
Au  -18.548357  31.463334 -14.576278
Sn   19.720420 -24.299320 -25.564150
Ca   15.079330   2.746371 -16.278485
Po   17.024463  29.398349  16.223500
P    -6.836727 -22.590745   7.489051
Nd  -32.614644 -12.939683 -11.568154
Co   27.109519  24.648230  25.430812
Cs  -26.048969  29.863398   8.714930
Sr   14.003619 -22.462117  17.612827
Ca   -5.152197  42.816426   4.354857
H    -2.343162 -17.828962 -22.867699
B    13.519440  11.205766  27.475772
Ag    1.899837  38.214674 -23.088270
Cd  -19.361869  11.744427  -4.269258
Y   -22.850545 -34.101071  10.612521
Cr   37.011078 -13.159257 -18.204540
Tl   28.368047 -12.881653  32.268411
Dy  -41.907374  -1.354342   8.585140
Li   30.266175  -2.087416 -12.339896
Ce    9.033000   5.940026  35.482218
Ga  -38.649974   8.942391  -7.570337
Rb   19.353150 -35.511271  -1.894905
Mn   31.705365 -18.286926 -19.699766
Sr  -18.192028   0.878043   3.311941
Na  -24.463002  11.689036   4.872800
Pb    6.180317  -3.015618 -32.392763
Ca  -20.580275   9.653940   6.457092
Ce   -8.005214  38.882233 -14.886304
Nb   -1.252643  16.881316  -4.972648
Ta   -6.135111   5.204374  42.840951
Cd   23.632757   2.710572   8.806565
Cr  -10.824903  34.858279   7.098040
Ru   11.626717  15.406306 -26.471897
Ag   23.241852  -2.663618 -11.559685
Pb   29.965738  28.844597 -14.245202
Pb   16.177852  19.124334  26.765774
Au  -13.164739 -40.109177   7.606890
Pr  -27.305166  25.858110   4.003506
V    10.215213  27.068759  23.400998
Cl   -6.169666   4.831648 -29.658522
N     6.337633  -5.839601   9.330307
Nb  -21.864654  16.820631 -23.659246
F   -30.628435 -20.126828   2.258486
Ce   -3.447374 -30.700467 -28.093654
Tc   -1.838553 -15.543094 -32.783191
Gd  -29.437439 -12.471295 -16.180834
Xe  -22.130350 -15.353226   0.245219
Zr   24.212320  -4.568881 -26.180577
As  -24.550651   7.507932  36.813887
Sn  -11.795760  -0.578450  40.854164
Se  -20.695445 -18.685294  19.805691
Hf   29.257877   4.328477  14.505386
Cl    8.530196   1.218687 -43.411406
Co    8.510357   9.345121   3.096951
V    24.639289   5.291300 -27.816333
Re   41.591001   7.542255 -11.596201
Re    3.147081 -38.754532  15.519235
Dy   21.056208 -30.825039  -9.722228
Dy    4.788112  15.330296   7.577942
Bi    9.814335  -0.145539  -7.532699
Sc  -15.807953  -4.441713  38.041698
Cs  -18.522000 -14.765171 -35.817184
Yb  -11.961033  10.381330  27.076485
Li   -0.995847 -15.535924  33.284375
Y    -7.270182 -19.643323  17.141906
In    4.461026  23.042694 -39.161823
Tc   -8.893745 -32.072600   4.160667
Na  -21.293906 -24.453564 -24.546282
F     1.447721   1.084960  22.807822
Na   11.929390  25.734461 -31.184363
Cs   27.451405  10.279791   0.867244
Si   30.632013  13.144809  25.362938
Tb   13.658196  13.948275 -21.707670
Cu    3.394621 -22.176176 -14.468856
Se   21.573623 -25.148368  19.988414
Nd  -21.441124  25.409164   1.373352
Pr    9.403560  -7.116764 -17.253625
F    36.499217  -1.669581  26.883662
Zn   19.976230  -0.406540  10.192323
Sm  -27.477015  -7.244379 -15.726693
Tl   -0.335079 -13.302992 -42.899100
Tl  -35.456597  24.358453  -9.494058
Ir  -17.145606  28.977849  23.852590
Ga  -28.318428 -12.891031   8.498468
Cr  -14.537100 -25.393214  14.780166
Y    -0.422136  39.845084 -12.681597
W   -16.585358  -3.489673 -23.702306
Te   28.922712  18.795223  12.983775
Pb   26.261223  -1.467015  11.200266
W    32.727286  21.619732  -2.715154
Tm   39.122882  -4.513571 -19.628624
C     2.257481  -8.575818 -28.752477
V   -34.537394 -10.455715  18.158626
He   42.900865   1.839755   8.862335
Ho   -3.599570 -21.797138  33.089239
Xe   16.923351 -26.409170  16.028330
Si   -1.259631 -42.581737   4.657181
Ne   -4.742739  10.789359 -32.337406
Yb    0.734773 -17.201083   3.733283
Cu  -17.893317   0.280649 -41.924055
Os   11.802020 -41.137962 -12.484236
Nb   17.885956 -10.216699 -17.973504
Tm   -8.933344   6.532562  -4.931078
Ag  -21.055698  11.709871   6.432152
Ba    9.875680 -32.696319 -13.136403
Ge    5.074544  18.256286  25.699986
Kr  -19.281757  -5.955903 -37.972617
Er   26.018494 -23.545115 -14.822054
Cr  -25.732743  23.764969 -28.734826
Zn    3.190313  19.190582 -12.603238
Rb   -0.244718  10.835607  -2.844596
Se   29.663460 -27.419151  13.399953
Ba   14.674261   6.632925  38.718742
Ga   -2.599569 -14.679277 -22.485319
C   -33.608020 -16.395760  15.026311
Au    0.653596   2.445203 -27.233281
Cd    0.912663 -22.721459  12.323312
F   -36.347033 -10.432261  -1.013334
Rb   34.194633 -14.328911  18.969684
Be  -43.504108  -0.549723  10.893690
Li   -2.772434  26.600415  -2.303918
P    28.296482  31.907395 -13.306992
Pm   30.519062  17.657619   4.350913
Ni   13.225632 -29.159712   3.306095
Sr   -8.245023 -37.024630 -18.439456
Gd  -14.700392 -20.088086 -13.435916
Yb   18.330049  13.679164 -17.464064
Rb    5.450092  37.053880  15.951464
Tb   14.915998  24.336172 -26.031426
Ir   14.963309   9.750571 -30.758770
Fe   -8.845595  -4.647365 -30.223390
Rb   13.427338 -30.227379 -13.443222
Hg   23.188702 -19.837371  15.736374
Tb    6.455352  10.619160 -26.952811
He  -25.000762  11.472923 -13.753382
Ba    9.789045 -30.785134 -23.695522
Rh  -30.670803 -17.885733  23.339664
Mo   26.348512 -12.959177 -31.074340
Gd  -36.583554  -8.541877  -6.634400
Ag  -27.974817 -19.400436  16.784267
Tl  -12.499869  25.345296  34.984105
La  -41.213696  12.141538   4.234936
Tc   14.266619  18.061068  35.383733
B     3.044787  18.112209  38.718386
At  -43.144971   3.087222  -8.407219
Zn   11.644711   4.701064 -12.479752
Po  -28.738509   1.230782  19.555311
Ta   37.485782   1.084413 -11.217504
Tl    7.998988  24.702669 -19.521877
Hf  -28.754110  21.897086   6.333182
Ta   37.030196   7.439409  13.379245
V     2.426327  13.938160   7.456669
Sc  -22.418175  34.882104  -9.176413
Mg   -7.445497 -25.564014  26.128543
Sm  -17.646858 -17.677621  -7.774930
Br  -34.624013  10.809629 -16.081944
Cu  -26.451551 -14.965238  -5.974165
O   -19.011259   3.086637  33.631134
Fe   18.069336  -1.388607  -0.367200
Si  -28.979962 -13.992284  -0.115375
Sr    0.962781  -8.400545  42.874633
Ta  -35.220714  -7.853521   0.359259
Cd    9.672659   8.400777  34.074952
Ne   18.839662   1.567749  20.973955
Ti   24.392311  17.654769  25.924807
Tm   10.876618  18.289938 -10.615151
Po   -9.115577 -43.006285   9.210164
Ge   21.616350 -24.725210  -2.613913
Na   29.388327  31.808504   3.354451
Cs  -29.778236 -28.988606  -9.472010
Hf  -21.798897  11.829906  24.845263
Nb  -21.191114  24.036693  -9.218169
Er    9.285536  11.102883 -12.415125
V    11.626864 -14.267503 -21.341575
Re   16.401620 -25.747155 -15.837511
Xe   29.467091  25.433579  18.917121
Rn    0.743141 -22.461942 -25.302214
Hf    8.606720  -6.059981 -29.070384
Lu   15.662126   1.717858 -23.140920
C   -27.268003  -3.260792 -11.584998
Rh   24.270595  23.586473 -12.316463
I     2.371618 -39.180332 -21.554489
Tb   12.217412   1.651423 -37.558683
Po  -33.035312   5.677947  25.846481
Ca   -7.835781   2.073716   4.530771
Cr  -22.971426  29.183790  15.087816
Mn    3.364815 -31.773376   8.237691
Ho    7.583088 -24.065510 -27.681415
Ba  -10.269548 -27.233839  20.077153
Sc   29.131456  15.238285  -5.706273
Ba   30.238681  31.591673 -12.571628
Mn  -21.408716  13.501928  24.962335
At    6.428237 -11.188675   6.452713
Ta  -33.267408  13.596535  23.349840
Er   13.550100  -4.605714  26.626186
Cr   19.412332  19.747766   9.223095
Ne  -25.706299  15.429986  16.833800
Co   -1.113229 -10.618640  42.170031
K    12.190621  27.754419   9.338275
Zn  -29.370018 -24.577991 -16.227691
Au   27.702036 -16.340558   5.353056
I    24.449882  23.306660  19.081786
Ho  -14.164717 -31.567547 -10.559477
Be   -5.553956  -9.941826   7.799297
Sr   12.674808  25.682018  -7.581214
Pb    0.925340  36.203794  20.295937
Ca    2.058470 -20.155105   0.248279
Tm  -14.011700  26.047546  29.469039
Pt  -10.942286 -15.338050 -35.812037
Ba   18.326387   0.496697 -24.486879
Ne    2.582493  12.623606 -21.992566
O    29.563680 -28.273182 -12.546121
Se    4.724738  23.966007 -26.065712
Na  -30.685775  19.311257 -26.569181
Sb   23.292347  35.560395  -8.669103
Ir   -4.310735  40.864087  -9.023660
Ir   11.132895  11.127634  28.041637
Ti  -25.358880 -34.592753  -8.520228
Gd   12.685864 -39.015767   3.355280
Hg   28.671182  -9.963300  10.721937
Dy   -1.339167  41.263661  19.317477
Dy   21.093105   5.872768  -0.434392
H    17.034249 -22.107207  -3.251779
Hf  -21.375747  -5.802145   0.042307
B   -34.451685  -4.986326  28.501939
Ta   -7.475773  23.187580  11.031611
Cr   25.970421   4.684921 -22.159716
H    16.343436 -40.622990  -3.742731
Mo   25.371687  29.001676  13.700101
He   -1.261141 -15.482411 -36.910775
Ga  -33.417182   8.688530  17.360195
Pr   23.294685   5.517786  32.008973
Yb    8.732806  28.582645  -9.133679
Mg   30.558268  12.521292  12.438373
Cd  -13.955191 -30.226396 -26.545580
Fe   -4.822863  -1.599844  13.177475
Ge  -10.471255  -8.319961 -38.611071
Li    1.841510  -1.844375   7.786872
Os  -20.246017 -29.288524  23.913898
Kr  -27.267608 -10.117602 -18.043454
Rh   -1.216907 -29.901037 -22.815620
P    -0.939516 -12.090962  31.654114
Y    -0.208350 -15.033279   7.966740
Ta   -2.049275  25.516378  19.993922
Rn   -5.783933 -40.851700  -9.761807
Sr    1.773377 -11.470806 -12.646342
Cu  -30.610422  15.426009  13.365845
Li  -43.196232   0.289229  11.859382
Na   -8.658137  36.280977  -2.465909
Ca   23.062804 -33.692797 -12.151115
Hg  -22.612532  -9.158681  16.373141
Cu    2.390877   4.417176  15.980675
Hf  -20.480522 -31.574029 -25.613942
Ga   15.451232 -26.636626 -28.681406
N   -15.649034 -12.957916 -32.880340
Ti  -18.522602   6.677362  27.990528
Po  -19.818928  18.562758 -28.247267
Mn  -17.456120  20.517755  14.085958
Si  -29.655476 -10.752894  10.048583
Sm  -40.928639  -2.430631  18.512564
Sr    2.859800 -24.445934  12.956608
Be   -6.758435 -10.491307 -25.691266
Er   20.514210  -4.133250  25.806447
N   -30.947183  29.296477  -0.451813
Mn   24.332638 -20.644110  21.858898
Pd  -10.361069  42.895882  -3.686885
Be   23.224459  -4.263820  38.519474
Ar  -17.418329  28.116254  12.710386
K    -0.469570 -11.990699  13.638922
Lu   14.938155  -2.983198  40.140827
Cl   30.596518  -1.471299   2.697126
Zn  -19.306798  40.984856  -4.234621
F    36.783230   6.358293  15.691812
Sr  -15.701996  24.917224  29.648761
Os   38.675177  -1.765474   7.792438
C     8.661143  33.073280  11.448223
Pb   34.445177  24.922965 -13.930304
Ru    9.977462  -2.992949 -35.247059
K   -20.146542  13.208078  24.091210
Ba    7.225630 -19.387955 -10.687905
Mn  -10.966903  25.022461  10.962252
In   40.381882   2.322570   6.181352
Zn   11.532213  16.059674 -36.389272
O    18.678907   4.641759  37.400224
Ga  -16.522670 -11.270833 -13.534105
P   -21.091073 -24.331140  28.046092
Cd  -27.790524  21.459641  -3.155890
Ir    4.617691  43.960727   4.673556
C    28.982737 -14.252504  26.230940
Ba    4.329679  21.433280 -20.500339
Zn   -4.654231  -4.381291  -5.509106
Ag   32.345460  19.843660 -24.991816
Tb   -0.933422 -29.001891  18.962370
Se  -12.364727  -5.714954 -38.298145
Bi  -36.444993  21.393661   6.452022
Xe   27.840423  -0.325269 -26.805707
Au    1.451559  31.954792  -8.150903
Li  -30.473428  19.080716  13.599161
Re   -6.982979  14.765093 -16.479271
Kr   -4.341076  40.949781  -2.822164
Nd   29.369637  23.981230 -10.943708
Gd  -33.496142  14.644787  12.312599
Ta    5.436669 -24.993144 -33.047611
Tc   -7.150117  34.225840 -16.831179
Sr   -8.739254  -5.605457 -35.798927
Sb    6.315543 -43.610334 -11.801671
Zn   14.277233  -8.804711  14.944537
Cr    2.238402  15.269172 -12.915686
C   -41.849391   6.344245  16.839803
Nd    4.204921  43.882823  -4.568180
Be  -12.639308   0.453179  15.885452
Ir  -38.750244  -2.613584  14.237626
P    -5.487380 -29.617071   9.695089
Rh  -11.263198 -10.440305 -30.724347
Cd   -1.501051  19.425938   5.979124
Sm  -32.049967 -10.334491   0.391405
Hf  -30.791058   2.234920 -25.634355
O     8.545562  -4.143254 -20.726459
Ru   -4.324909 -31.977059   5.568416
Ta   23.577612  14.046609  24.365886
Pb  -25.601774 -15.808369 -25.649064
Lu  -10.459954   0.993354  -3.638817
Ar  -11.560750   0.323378  26.635727
Tm   11.874321 -26.137948  15.539437
Ag   17.677761  11.886128 -35.850327
Li   -9.026093  21.999674 -32.984328
W    -8.181069  14.132290  42.578213
Cl   27.767987 -19.958130 -19.523641
Lu   11.764090  37.072679   6.899494
N    22.057467  16.472847  29.809134
Ni   -2.768041 -32.136563  -2.808193
N    -9.391047 -30.620418  15.297211
Cl   -1.254251  -3.490944 -13.413691
W   -38.588038  18.171012 -10.052997
Mo    4.326450 -11.541020  34.399650
O   -22.882942   5.779346   7.308696
Ni  -18.970435 -22.002257  33.973279
Zr    2.536145 -35.969462  -7.550696
Ta    5.629865   4.064716  17.644378
Re  -19.866614  -1.838380  -3.445202
Ho   15.557424   8.843128  20.953188
Po   33.149227  26.242450  15.679676
Zn    1.377212  22.836028 -26.230536
Re   25.466325  22.305886  13.530702
O    27.821131  -6.863816  18.418801
Cu  -39.182350 -13.090239 -18.525613
Rn  -28.945151 -18.459364 -21.176677
Ni   21.673350 -19.645672  21.511937
Kr  -43.438262 -13.420208   2.425191
Cd    6.880812  27.822762  10.395349
Kr    5.575335 -29.184336 -20.566205
Ir   -4.606600  23.096676 -28.344626
Be  -40.310129  -6.374397  -8.363836
Re   15.666935  25.017831 -29.617810
Gd  -31.333828   2.851715  -0.627642
Ho   -2.205502   7.754155 -34.481964
Ca   -0.424653 -25.943301 -10.564782
Na   24.957466 -20.002170 -12.190574
Sr   -6.190295  25.474731 -34.587425
B    -9.477853  22.884135  37.130752
Lu   41.446380  -6.395381  11.975818
Mg    0.309229  40.530653  -5.212705
Tm   24.678284  -7.013478 -33.399108
Ag  -30.781531  -3.817894  -3.055027
Er    8.319680 -18.647745 -14.752924
Rn   26.440372  12.120521 -18.511310
N    32.237908   0.050412   9.313768
Re   25.876558  19.047435  10.110016
Dy   25.500147  20.530722  26.357727
Li   41.244973  11.274299 -15.654614
Be   -2.225864  20.491437  39.413770
P    36.722438 -22.901812   8.311318
Tm   34.731836  13.578865   9.850005
Ho  -13.008624 -10.457788  30.649830
Pm  -12.580816  12.919683 -31.917377
Nb   31.700895  27.741789   5.731283
Rn  -36.622188  11.195185  20.109488
C    10.250136  -5.685234 -24.584668
Cl   18.181236   3.005460 -28.978801
Rn    4.805624  -4.618840   1.632488
K   -41.700766  -2.264056   9.756986
W   -30.690570  30.537663  13.611013
I    32.885143  15.267669   2.828681
Er   -4.159290  10.317898  39.020024
F    -2.805001 -10.076130  43.382486
Ru  -16.156085 -17.288514  38.027733
Hg   22.203163 -25.060354  -4.984668
Ge    6.521626 -27.163559  14.630636
Fe  -22.401479  31.337992 -12.675483
W    -7.526836 -37.225890  -1.099276
Hg  -18.024300 -19.865092 -22.530553
Pt   -5.144238   3.926105  32.613581
In  -13.556737 -22.931920 -23.582945
Ne   -2.858071  -3.390854   4.663865
Sn  -39.604380 -13.380831   4.319793
Ba    1.526000 -18.153734 -26.958408
Te   10.362964   0.672539   0.424767
He  -33.240301   6.177469  10.838045
As  -29.940180 -23.372142  24.829078
Ar  -23.550438 -10.919543  17.828394
Kr   33.388813   5.394995   4.256278
Os   -1.440868 -23.952947 -27.738050
F   -41.081062  -5.868341   1.799150
Pm  -11.206007  34.265017 -23.538420
Al    8.826878 -34.426608  -3.946914
Eu    2.483169 -30.315435  25.164408
Tc  -29.061263  31.013244  -2.383872
Yb  -16.913186  38.001992   5.172352
Cd  -14.517503   1.491669 -36.727028
Ta  -38.801391 -16.860891  -3.740362
P    39.727024  -6.776286   4.582279
Ti   -8.480929  12.655690  32.456183
Zn   27.015192 -29.879794  -2.269089
Al    6.311469  24.932401   5.140951
Se    7.182508 -29.759346  15.299134
Co  -14.602422  24.869216 -32.528973
Bi   -4.629180  17.042981  25.739311
Rb  -35.832480  -8.561320 -10.537132
Tm   12.266415  -2.098597  14.898476
Nb  -13.336878 -28.339196  14.096111
Rh    4.572811  14.290591  27.029323
Si  -41.383627   6.470239   4.190189
Sn    9.142890  -2.324189  12.585227
O    15.103506  31.322395  29.014227
Hg   -2.540864  34.550163  15.380838
Li  -14.977985   1.469584 -13.967688
Pt   19.791416 -34.663236 -17.247055
Ce  -17.143783  22.474955  -5.670194
Sc   -1.966111 -16.719577  -3.768988
Dy   36.744142  13.275890 -19.470752
Pb   29.932933   7.912589  29.632849
Ba   -3.411973  -4.830708  31.814947
In   23.222781  -2.485518  -2.590638
Nb  -12.304407 -22.782040 -10.952483
V    22.237948   6.454402 -23.637757
Er  -30.112949  19.227683 -25.622870
Ag   -9.976448 -22.333678 -26.252742
Li   22.162037  -0.322881 -39.336968
H     3.706818  -1.939358 -23.558475
Ho  -10.413425 -18.012771   6.286566
Pt   39.666250   3.758788  -4.848947
Dy   -5.369834 -28.034960 -33.468407
Ga   19.322051  10.013226   6.510335
Dy   10.554349  -2.217359  33.268152
La   42.594460   3.080652  -3.746149
Os   -6.353934  23.769688  29.525535
Hf   -1.417638  -2.857360  -9.007853
B    10.199919  -2.497803  28.716412
N    -0.797451 -19.123042  18.871494
Ga   28.077306 -21.883289  15.186248
Er  -22.204311 -22.257319  20.796017
Co   28.138967   2.051807  23.947506
Mo  -28.080214   7.152485   9.852854
Gd  -30.952449   7.748369  18.460441
Bi   22.082902  27.728792 -19.202993
P    -4.059428 -24.198683   0.560327
Al    1.123221  -6.701526  -1.448782
Mo   29.078754  12.656233  16.573122
He  -12.159786  29.919630  23.365985
Rh   30.447756 -25.539478  18.595644
Gd  -16.988704  13.273949  31.861766
Mn   20.095355 -32.417236 -20.846967
Er    6.755614  -3.008856 -15.989088
Ca    5.698682 -12.672740 -18.046803
Pm   20.764605 -25.230985  26.367976
At   26.601768  24.805143   9.133399
Tc   -2.751264  -9.619729  30.255484
Sr   -5.259410  38.720278 -17.935733
Zn  -27.062253 -14.319973  -7.063819
O    28.460228  -4.539027  16.700076
Zn   32.727050  -7.216630 -20.166599
He   -7.515105  22.571417  36.113974
Cr   34.618791   5.856226  28.213281
Mg   19.512965  -3.728983  37.868753
Na    5.382094  -6.351581 -20.716845
Se   -5.610495  -5.383265  -5.978913
Cs   28.077237 -18.300433   9.648934
Co  -12.193794  28.987815  -2.362274
N    -2.729935  26.751792 -17.064129
Ru  -33.760217  17.466146 -10.163484
He  -16.700774  -7.277419  25.302657
Xe   18.363335  13.994629 -18.799010
Zr  -19.430343  12.508575  24.772869
N   -24.010232  11.996884 -36.269201
Rb   29.762687  11.848054 -26.674658
Cs  -13.941771 -36.288250   9.764638
Lu  -11.546278  12.502930   7.559656
Ru   14.817712 -36.758940  10.551935
La   -4.551785 -15.435271 -19.490699
Ir   -6.522204  21.059666   7.059750
Y    35.475948 -23.655994  -8.312529
Mo   23.125244  10.954099  -9.899299
Ru    4.594639 -33.427791  28.991451
Sn    2.808485 -33.227427  -5.002119
Nb   20.639532   1.881264  17.733913
Y   -11.825550  -9.022509  28.526117
Zn    5.126188  25.606609  20.809594
Dy    5.360213 -25.494931  28.968716
Cr   -3.588832  28.151048  29.803537
F     7.664184  27.258912 -26.549806
Cd  -20.553320  27.422141   6.376396
Zr   42.500089  -5.872979  13.499835
Nd  -12.920027 -37.496695 -10.650371
Pd  -31.216692  15.882267  28.890227
Fe  -16.003720 -27.197364  -0.890939
Bi   11.582120 -22.303661  16.740976
Rn   -4.491326  13.532670  15.557367
Xe  -11.176769  -2.348655 -21.145161
N   -20.516753  10.494873  36.745628
Cr    5.659314  27.956271   3.295557
Er   -0.802838 -24.157571  25.070632
Te  -16.116288   6.136528 -14.205942
Ce   23.372995  34.737232  -1.072211
Xe   -3.333291   8.426702   2.254556
Se   -9.920549 -41.310493  -8.826287
Fe    0.146426  37.352171  24.645833
Nb  -29.534189  24.206721  16.710821
Sr   -3.753507 -28.859759  30.534079
N   -36.533372   6.902837 -23.105494
Ga  -14.281108 -38.247685   1.125446
Ar  -40.555163  -5.736589  18.309670
Ti   13.925563 -26.065109   4.224526
Er   38.213909  -9.648032  14.670849
Co    2.592270  41.656294 -11.525426
Zr  -20.295400 -16.950538  20.361754
P   -38.297427 -22.201152 -10.568207
Na  -20.453626   6.653019  -2.559391
Gd    4.295881  35.600345   2.455864
P     3.410304 -22.072962  -1.347099
H    23.615909 -19.120306  34.049171
Cr   27.945521   9.467167  -1.655950
I   -10.601110   5.786720 -22.988329
Ir  -28.336459  -8.039979 -16.003038
Ar   38.247403  -2.215143  -7.706749
Pd   28.391582 -29.972981  10.184083
Hf   17.608403 -19.633604  -7.230065
Cr   12.768425  24.902118 -35.905116
Li   27.595588 -22.852831 -15.804896
W    11.250211   7.958518 -39.005897
Sn   26.731351 -27.268035  20.882290
H    33.472946 -14.084586   5.407353
Mn  -18.280601 -33.040143 -17.309632
La   25.869724   9.272042 -10.629123
Ta   17.138004 -20.016563  -4.112186
Tb   29.877999   8.395818 -20.710563
Ar  -26.828087   1.630420  28.390259
Cd   15.993971 -17.462975 -20.118623
Na   17.700409  26.163498  10.891889
Nd   30.495515   1.776099 -28.882308
H   -18.788153  32.688469   1.347237
Pb    5.918044  12.634686  28.438792
Li  -33.998104  -6.555198 -17.478542
Ru   28.542606 -10.866001  25.029315
Mo  -34.432353  13.044857  -1.307719
Br   -9.869702  -9.683289  40.980504
Eu   10.128411 -12.038791 -26.954041
Co    6.882398   9.324615  33.992435
Sc   25.370574  33.503802   5.578443
Te    4.191115  -8.888945  42.100650
Er   26.052467  15.642766  -9.900206
He   23.036005 -31.580534 -13.098929
Tm    6.685836 -31.304239  -1.370258
La  -27.839953  -2.397541  17.546678
Se   -8.441089 -41.650233   0.665184
Cl   14.270662 -38.161230 -15.287418
Pt   12.390261 -11.067355  14.227934
Au   -3.971701   6.651964  38.345327
Xe   -7.818843  23.125419 -17.530201
Cl   15.593660 -29.088628 -29.043704
Zn  -21.154315  -7.171618 -14.564091
Ti  -41.279491  -3.758669 -12.716838
Au   14.905116 -17.257633  28.397488
Zn   -3.290946  34.731447  -2.402722
P     2.105426   7.625568   0.045086
Tc   13.350288  35.289413  -3.001254
Y    30.130703   4.067138  26.076844
Er   13.247394 -25.633485 -26.280560
Lu  -30.442526  11.508732   4.816151
Be    9.313273  -3.657548  -7.200909
Ho   -9.590237  11.736287  10.758718
Li   22.166222  -0.514274  -7.169764
Sn   23.675026   9.336382  15.597907
Be  -33.239617   5.666925  29.577382
Pr  -24.290039   7.218738  -7.575837
Ge   11.172565   1.854995  26.786125
Xe    9.814830  32.058218  30.807230
Sr  -14.821412  11.517011 -33.549696
Cd   -2.155976   1.063958  35.629356
In   -8.905794  24.097223  -0.486992
B    11.918892  13.981074  -5.046375
Ar   10.627212 -16.013332  40.773489
C   -22.709599  -7.466214  38.759911
S   -15.060918 -24.918673 -26.569202
Ir  -35.293971  -5.405109   6.333580
Ru  -11.590322 -15.218516  34.799677
Nd   21.470708 -14.025624  15.087190
Ar   12.539734   3.996877  12.633840
Sm   -8.925712  -8.702530  41.530911
Tb   -0.157818  14.985868   8.525407
Ce  -34.134767 -20.364189  16.852400
Ru   24.319974 -11.404431 -22.027152
Rn    3.379649  32.210203  23.933418
Sr    2.294257   4.027246  10.944701
Pr  -31.551247  -1.977689   5.574687
Au   -4.636129  -4.467315 -27.148778
Sm  -15.629886  17.791376 -25.688803
Pd  -36.359469  20.141267  11.911266
Cu  -27.347298   4.850049 -19.525565
Li   -6.406454  38.985565   3.098820
Mn   18.813196  11.015761   7.071722
Si  -10.815861  10.349013 -10.325208
He  -10.686603  28.021191  -5.538830
Mg  -11.657737  35.828110 -14.219049
C    34.215472 -22.584975  -7.154930
O   -16.011359  20.194454 -36.074152
F   -20.609162  29.000050 -14.096669
Pr   -6.449270  17.167469 -26.764181
Ni    5.177223 -22.453275  29.240754
Xe    3.297321 -14.352356   3.754515
Eu   26.578109   4.330501  -2.788110
K    17.798485  -4.788001  -3.183650
B   -27.342904  15.812715   7.395939
Ta   10.478088  -4.278965  30.721006
Sm   -3.614154  36.392835  -0.254501
He   24.993389  25.237689  25.680846
He  -10.142505 -16.376645 -40.136866
Sc  -33.755655  -9.434772 -14.851805
Kr  -22.880448 -27.125218  -9.517387
La   25.821616  33.233981   4.966846
Os  -10.452877   2.198866   7.333804
Ga  -27.739783 -18.013044 -13.803653
Kr    2.370029 -23.719860   0.346382
Tc   -5.600047  36.706141  23.310136
Sm   24.540586 -10.182445  14.521933
Ba  -37.844197  -5.433636  12.750787
Ta   21.362258  -3.280046  35.728895
Cd  -27.499267   2.578631 -12.717409
Mo  -31.527962 -17.728581 -19.364353
S    -6.795624 -11.210031 -13.629296
Sm    3.381412  32.576994 -14.725754
Rh   28.407491  -0.425418 -33.419560
Hg  -17.213440 -10.353583  30.596780
F    24.390775  -1.572516   5.800685
Tc    1.550956  -4.667136  30.910265
Gd    8.955822  11.475369 -27.185285
As   -6.061031  -1.728730   6.345161
Br   -9.534954  -1.990593 -30.959176
Hf   32.180348  12.751141  -0.171277
Re    8.055238  -9.026748  25.208954
Cs    3.111348  27.609669 -19.365527
Au   15.209624  34.450745  -5.172608
Cs  -12.345922   5.794280 -16.527104
Cl   -6.618710  -5.092293  42.470917
S    -0.675993  25.652000 -36.843143
H   -38.955853 -17.809543  -2.002195
Nd  -25.521636  -5.933905 -28.816615
Ru   41.287851   1.290494   3.040760
P   -29.030402  15.911159  12.803350
Re   18.514627  37.210430   9.030996
Ne  -16.708016 -32.287831   8.357964
Be   11.578543  15.021484  27.023431
Hg  -11.132365   7.351485  42.800781
Rh   27.497571 -17.778660  -0.144389
H    -8.529410 -11.090539  25.625609
He    4.692043  10.061483  12.271221
S    19.341877  -9.295109 -28.816797
Nd   14.999888 -13.823800   1.072501
Yb   -2.727483   8.256086  -7.760390
Kr  -18.275265  12.149344 -35.680058
Rh  -22.884480  12.881321  15.477468
Na  -17.168968 -33.886460 -23.993197
Cd   13.832218  21.360599 -21.488343
Cs  -39.499919  -1.637272   2.880448
Sb   37.848790   2.309128  -1.785393
B     6.390476  29.344783   4.801962
Tb  -12.096407 -18.621274   4.678082
Ce  -13.878119  -7.270759  27.001178
Ag  -37.980922   4.862539  -2.134886
Xe   11.758255   9.971965 -32.854148
Xe  -18.906332 -38.469612  13.997346
Sr   21.866564  -1.096519 -31.130020
F   -31.765337  15.484839 -18.943998
As    6.016627  35.574660  17.350953
Bi   43.908352   6.734333   6.933902
La   19.230305 -38.637148  -1.924941
Ar  -39.340257  -4.084591 -18.767356
Pr   -7.836638  24.476321  31.909285
Nb    6.077856 -10.431485  -0.242411
O   -32.853671  -2.193280  -1.835539
Ir  -37.593339  21.015303 -10.226919
Sc  -32.038666 -21.051665   9.549953
Zr  -23.573634   2.174563  31.051571
Tc    5.954658 -15.311201  36.262499
Fe   20.445756 -18.256722 -19.924040
Ca   10.893496  35.161367 -11.024733
Sc   21.149772   8.224466 -21.234611
He  -20.001539   5.653681   8.782304
Ge  -29.015055 -14.928296 -22.268887
Si   19.503764   2.323023 -22.312357
Cd   35.306828  -0.381330 -15.872643
Kr   35.985114  20.842865  -8.282685
Nb   -6.660512 -10.786316  11.009403
Po   -6.474110  39.831021  20.198649
Rn   27.823162   3.821936 -14.696465
Er   14.353825   5.368260  15.445695
Zn  -29.014528   1.943780 -12.610995
Li  -16.278694 -14.657640 -18.836043
Cs    2.682107  -7.781188  27.348906
Bi    9.890624  24.163626  17.653513
Cu   27.747923  23.239836 -14.302348
C    24.618287  15.647141 -16.981669
Ge  -18.760726  27.674982  -4.964201
Re   -3.639444  21.260343 -39.743881
Cu  -14.143376 -17.835207  -4.661364
S   -38.241872   4.713797  14.946061
Ar   35.284040   2.971297 -13.544700
Pd   31.285583   1.267497  22.389899
At   21.326715 -13.311377  10.448361
S   -21.798500   4.843577  -3.341978
Ag   16.621144 -29.171946  20.908956
N   -16.811824  36.245746   7.587880
Mn  -25.972790   6.441546  -6.149804
Rh  -13.799310  29.150127  32.357239
Tl  -10.043847 -24.483779 -14.231295
La   -8.817204 -34.665819   0.555349
V    18.742499  -1.676919  -5.266001
Ba   23.699670  16.120710 -16.431637
Tc   16.985283  15.901651  -3.768923
Tm   22.672444 -17.259001  23.233137
Sb    5.556325   4.069676   9.606920
Fe   21.132391 -17.556403 -30.308316
Rh    4.786115  23.516762 -36.510671
Ne   27.856826  15.280139  -2.072324
Hg    4.476788   2.922466 -37.528072
S    -2.642646  11.737771 -23.867182
Cr    7.787430  43.107102   9.047940
Cl   19.995046  31.912277 -22.648260
Os   35.746895  -2.229100  28.308958
H   -17.719249  14.863261  -1.912590
Fe   -7.266725  13.332288 -11.341645
Ce    6.337416 -21.387996  13.759072
Al   10.613327  -4.541042 -18.012416
Sr    5.606350  26.639679   2.844650
Tb  -13.642240 -26.290073 -19.712237
Er  -31.416529  21.062252 -21.936298
Se   27.588428  -7.488899  28.191212
As   41.228850  -2.232039 -18.633499
Cs   37.239368  11.770146  10.581312
Mo   18.439483  11.439434  17.105362
Te   10.921829 -14.630313  29.262898
Hg  -15.789221  -5.302151  31.548919
K    -5.636857   5.208271 -16.441954
Er   -9.256422  12.827542 -36.450455
Rh   -5.914084  27.689259  30.674480
O    26.689838 -16.917156  20.107486
Pr   22.721819 -34.477720  18.170443
Al    5.829910   5.908300 -25.074817
Ta   -1.354772  17.358606  26.027157
Ta   -6.230162  -5.542321 -24.105157
Ar   -9.652219 -31.526163 -25.225347
Ru  -29.800701 -15.333141  -5.289295
Os  -24.275870 -34.303490 -14.700145
Kr  -33.636377  -7.830326 -27.422649
Sb  -15.418797  -7.857677  29.715646
Kr   -5.504621  24.449487 -10.705731
Pm   -3.173876 -17.986662  -1.647689
Tm   10.513318  38.961166 -14.642130
Yb   32.552386   7.006792   0.829217
Cu    2.543680  -6.363059   4.210742
Au   33.136282 -24.944733  16.361981
W    30.220414   4.108362  -0.502230
Dy  -16.255309  38.038245  -9.731536
Ru   30.774122  11.878703 -28.016143
Yb  -25.736229  -6.453719  -4.979743
O     0.222246  18.293144  34.694811
Ti   -2.937151 -12.009249  31.549494
Ag   32.313059  -9.183950  11.987712
H    -8.544694  38.978517  -5.579082
Cs  -21.270206  12.287886  15.974033
Si    1.002098 -15.691533  14.849442
Cs    9.448161  15.671236   9.621360
Rb   22.623813  36.518249 -14.817525
Er  -16.128137 -28.969304  23.419813
As  -18.216592 -13.180213 -17.803386
Tc    7.365481 -18.753257 -24.898279
Ta   -6.095849 -26.295899  35.133921
Mn    7.056173  11.701244  31.299428
Os  -22.467300 -35.796689 -13.244872
Sn   21.040784  -6.746514  17.934799
C   -24.564441   7.813885   3.850385
Pt  -21.303772   2.003292  17.502424
Rb  -16.658945 -10.588375 -19.869542
Ge  -20.566756 -15.903542  19.368049
N   -10.713490  -6.920655 -31.921535
Mo   -5.185934  20.507724 -15.151930
Zr  -38.472674 -15.877990 -14.377235
Tm    3.144063  -3.681704 -18.099450
Tb   33.270565  25.817496   4.999649
Se   -7.931799  33.735019  25.504815
Sb   11.039448  23.097158  20.919044
Y   -21.476360  21.685881 -29.214608
La  -15.884330  24.931620 -10.286615
Ag   23.805869 -11.313667 -17.291899
Sr  -24.329724  19.676680  17.431604
Rh   10.693244  30.524382  25.121948
Rb  -16.154083 -21.484395  27.882143
Pt  -26.234792  35.481118  -3.809661
Hg   18.098911 -24.531702  17.362802
As   22.268782  13.352878  12.009334
Re   -0.832637   2.501887  18.009926
Fe   34.128895   8.516462  22.208868
Ho    7.759844   6.261748   4.980260
Br   11.527743 -24.951817   9.295983
Sm   -7.054185  33.901603   7.932636
K    13.450440 -25.839782  31.102589
Kr  -14.338410  10.274900 -26.813062
Tl  -22.851896 -31.250454 -22.203341
Sb  -39.492629  -6.208804  16.293587
N    -1.401206  14.090607  -9.987592
Yb   21.933720 -12.945866 -36.935800
Pd    3.678576   5.861279   6.031456
Ba  -14.736942 -12.234561  25.430241
Br  -20.154485  20.214402  30.416700
Hg   35.456408  21.993684  -4.283967
S    -6.535261   4.642108 -40.239561
Pd  -39.956811 -13.155386  10.087874
Pr   29.049450 -23.811973   0.754487
Ca    3.579380  20.776794 -32.340093
Te    1.384670   5.327701 -28.346228
Tc   20.837159 -19.370258  -2.170502
Sb   -1.371724  -3.158823 -31.480049
Nb   32.278938  12.387541 -15.187332
Ru  -17.046117 -20.343909  10.318687
Te   -8.451280   0.008784  41.173449
Pr   -7.528886  12.326271 -34.985770
Sr    6.478398 -35.042905 -18.152948
Mn  -16.413109  35.056839  10.401393
Rb  -37.331878 -13.974439   7.993597
Nb   18.936551 -21.733055 -15.420355
O   -18.927152 -15.579501  16.776643
Os   -6.044049 -20.977140 -33.211482
Cl   20.029696  10.318576  21.499263
O    16.795821 -38.030317  -1.526268
At  -13.213001  10.758386   5.645312
Mo   -5.793426  10.206561 -22.238865
Sr   30.127928  17.366456 -22.933421
F   -21.145155  26.339368  -8.469120
At   36.538471 -11.620602  -4.974578
Mo   31.948206 -25.849865 -11.338545
S     3.889906 -29.268616   0.761998
P   -24.420525  15.559436  15.145798
Mo   26.171634 -10.472725   0.873372
Bi    8.394618  22.494758  -5.301455
Mg  -12.058370   0.654166 -17.985765
Pd   20.930026  -8.733975 -35.751891
Er   -3.677806 -34.349871  10.468455
O     8.750805  29.869292  -9.790478
S   -18.399673  -1.496270  22.567264
Sb  -31.146917 -17.584404 -22.693980
Tl  -21.575510 -19.859151 -17.195892
Ho  -30.925337 -16.792121  21.133149
Gd   -2.655881 -38.018135  -6.495688
Tm  -19.802020  25.726473 -19.033807
Cd   13.764601 -17.984672 -19.977354
Er   21.420438 -19.752248   8.916108
Be   12.234833 -27.049071   3.488187
Xe    4.087320   2.449024  20.456912
Y    -4.719157  -0.807364 -16.667708
Sc   27.004610 -25.086749   6.550828
S    13.890278 -23.175246  31.413154
Xe   -9.762936  19.885049 -10.990746
Nd  -13.288292  -5.699716 -38.502428
Y   -21.205865  -1.056394 -36.614564
Gd   35.627200 -14.231928   7.930219
Tm   15.591359  -3.727462  27.402289
Lu   -5.998942 -15.360297  20.771254
Ag   11.088681   8.762037 -14.317319
Sr  -29.874915  17.378506 -13.351959
Sr   27.472018 -21.629585 -14.135527
Se  -22.402407  16.536246  -5.658139
Cu   11.851419   8.906903  33.235555
Hg   18.487345 -34.418501  21.344981
Ho   -5.910375  12.475664 -12.015987
Rh   -4.446904   5.212889   3.651339
Ge   16.506740  26.866502   5.147642
Ar   31.135052  22.846807 -10.342991
Au    9.513289 -13.150048 -39.478827
Nb    4.407428  36.407639  -8.494998
La   13.299786   5.306608 -32.927204
Si   39.383272 -14.561374  17.702827
Ho   -8.222062 -26.371131  18.532264
Au  -14.299368  -2.553008  -3.362821
Ca   12.699601 -21.056563  14.434735
Ta   11.552339  -6.561562 -21.895883
Si  -16.049535  20.867110  21.693244
H    -7.551240  18.163581 -18.657603
P     2.479810  -5.110877 -10.230181
Lu  -22.402171 -15.976621 -13.896638
Ne  -26.460307 -24.770997  20.632210
Hf   27.203555  31.321662   3.369223
Ir  -16.430974  14.155294  11.537695
Ru    7.674796 -14.605302  35.182440
Ce   12.541319  -4.296702 -39.485014
Ar   41.994114  -1.480707  -7.399456
Y    21.868376 -14.046224 -10.415713
Os  -16.790709  -1.710524 -16.082355
Mn    1.918420 -31.672684 -15.124260
Sr    7.741458  13.316855 -12.253638
Rb    6.930771   0.097854 -30.875504
B    11.185681  15.597448 -39.187495
Eu   32.713530  -7.684106 -11.016598
Na   11.878829 -16.749335 -17.395787
Ge   36.719098 -22.585613  12.868265
Br   34.904203  26.504533   6.039531
Mn    7.167003   3.268484 -29.350025
Pd   11.619443  -3.212256 -34.522836
Re   11.613932   9.297244 -29.406179
W   -22.682175   4.291565  18.503078
Ir    6.042483  32.911297   8.601337
W   -26.616627  25.243296   0.087807
I    11.144303 -11.821122 -12.373236
Hf   18.520610 -19.951735  -3.583884
Lu   -2.518963  14.425631 -36.581401
Cl  -16.950094   5.207390  -3.688406
Ta   33.365077   3.282270  18.028947
Tl   28.712614 -31.189106  -1.104894
Ce  -32.119761   8.218988  28.817147
Tb  -36.348183 -10.850524  -6.937114
Sr  -26.673654   9.858446  14.976915
Be  -22.345270 -18.317039  18.923192
Tb   33.826633   1.925774 -21.959425
Po   -4.657647  10.641602 -33.344071
Pb   20.910899  13.595661  -2.916542
Lu  -26.683755 -12.999604  14.729861
As   24.299825  -2.417082   4.834052
Au    3.646082   1.230945 -19.334783
Ti    0.967919  13.179745 -41.152579
Nb  -30.956117 -23.976057  10.142954
V    23.461594   7.389978 -26.295569
Cr  -23.338147  -5.192752   7.831968
Hg    8.423350  17.462924 -37.557809
Cu    9.845932  30.327287 -21.887780
Mo  -24.266100  29.094422  10.663727
Tc   11.422405 -27.736849 -34.443243
Rb   12.233292  -8.744022  15.217325
W     5.008475 -13.678908 -12.487556
W    -7.223162 -20.300956 -34.878935
Sn   -2.224337  -0.147748  33.008728
Y   -36.848545 -10.521013 -11.417184
Pb    7.393066  28.951548  30.356084
Ho  -20.704370 -10.556263 -24.792602
Cr    1.202166  24.961019 -24.591541
Cs   27.468422 -18.804068  30.427244
Cu    4.922888  -7.298354   4.582495
Nb  -12.625671 -19.377374  17.905867
As  -15.783846  32.759075   3.591585
Nd  -15.189968  27.197650  27.783776
Ca    4.341656 -16.640572  36.415178
Po   13.603446  23.675755  36.648783
Po   25.962290 -11.370241 -22.266216
Pt  -12.953570  18.183899  29.598662
H   -13.278687  37.126267  18.876813
O    34.944633  -4.316982 -14.194118
Ga   -3.911313 -19.755805 -36.854913
Cs    5.983994 -28.391739   7.247499
Mg  -18.206663  30.985575  10.465610
Na  -33.678873   5.004688  22.019112
K    -2.585362 -37.040765 -16.571240
Rn   18.551921 -17.219658 -24.303263
Lu    5.108761 -17.865169 -27.245956
Pt   -5.030253  -0.699551 -30.646975
Mo   -6.964293 -25.641672 -23.295851
Co    1.040254  32.831015 -15.478513
Gd  -12.448746 -18.214979  -2.095708
Si    8.640826  10.071222 -11.075210
Rh  -26.562295  -8.546981  27.187004
Rn   15.847090  18.086884  29.112992
P     9.396669   7.171635  38.083688
Co    1.087479 -15.629050  12.720858
Co   25.065303  -3.487817  -2.489199
W   -19.015775  -5.276432  32.453375
Tm   13.783942   7.171612  18.478364
Na    5.797630   7.825513   8.029201
Ir   13.378065  10.145898 -34.631795
I    26.388636  15.340760  31.192923
He  -21.611515 -37.705744  -4.475198
Bi   35.676569  11.950117 -14.795679
He    7.248987   4.109596  -7.635200
Rn  -15.055881  35.271494  17.123962
Os  -16.578319  36.142219 -12.117723
Na    9.727891 -23.060324 -33.251633
Mn  -23.763179 -23.070411  28.774269
Tm   12.137069  20.191488  23.097425
I    22.700450  36.695236   0.959928
Mn  -25.916743 -10.627087 -27.793496
Pt  -23.079414  -9.151990 -29.926971
N   -27.296432  29.223462  -5.615734
As  -15.888592 -15.176586 -29.399672
K    12.847832  -2.566972  27.294102
Ne   19.166899  37.057834   8.356331
V    26.572902   3.562758  10.893679
Pb    4.534094 -11.934128  -3.776015
Cu  -20.691547   9.909473 -28.040559
Ni    4.424794 -26.253958   2.381106
N    -8.857805 -33.319497 -23.085135
Pr   -5.011416   6.924620  33.342238
O   -23.519594   9.498720 -35.143086
Br   35.149923  -3.004117 -18.102696
O    11.338970 -18.460480 -12.824544
Au  -16.617919  -9.415869 -40.406576
Co  -36.440257   8.058849   3.705728
Sm   30.031415 -15.001549  15.262949
S    -3.068971 -22.031551 -31.442020
Br  -10.613483   4.419484  28.330641
Er    0.969121  -2.360594  19.945702
H    32.356017  -1.052700  12.121969
Ti   40.269179 -15.580637 -13.734702
Ga   10.911527 -29.230579 -12.824195
He   -4.510629  16.848405   8.945902
H    -8.244002  27.166246 -21.296702
Ne  -25.571019 -16.885191  11.928365
Ho   -6.962144  11.795946   1.349946
F     6.818443  -0.734307  36.041306
I    -8.472035 -27.852529 -31.172833
Eu  -33.118374   3.396223  11.432487
B   -11.724723 -28.788314  -3.693364
Zr    3.070368  37.887310 -25.264093
Re    7.786549  -3.185574 -41.333186
Rh    7.734651 -20.320390  -5.295064
W    26.617909  33.141079 -16.286496
Cl   -0.622919  42.079833   5.881882
Ne  -10.273524  -4.107552 -34.063852
Lu  -32.418102   7.791257  -0.529627
Xe    3.502112  21.946900 -20.093824
Po   24.959146  18.586190 -27.183062
Ge  -21.380429   9.627994  28.817041
Tb    2.435097  -1.389703  11.355967
He    4.192803  24.709578 -15.168161
Sn   -3.714723 -22.283525  31.661811
Eu   25.992638 -16.598436  21.739180
Pb   19.343273 -22.421131   9.917060
Ne   -1.584000 -33.827934  27.587815
Ca  -31.610466  10.801447 -21.899848
In   18.713479 -12.118994 -19.982642
Os   10.784828 -18.239745  16.020004
Cr  -38.870482   9.712421  -8.861788
Er   -3.427961  28.347310  11.912571
Lu  -13.024118 -10.286390   4.198677
Rh    5.944608  -9.414444   7.448864
Hg  -23.690234   2.424631 -10.982002
Ce   26.307304  25.794306  17.385657
Mo  -18.520017   0.403246   5.905723
Tl    0.797262  23.262784 -29.862956
Na  -28.226910  16.869783  21.879155
Nd  -21.249777 -22.641691 -23.735470
Ba   19.172645  -3.439539  17.271995
Ho    7.723402  11.728599  -4.512857
Hf    3.292319   4.433507 -34.950028
Xe    7.571774  30.575556 -15.880944
Tl  -21.769706 -11.062235   9.931615
Sc    8.747854  35.489707  27.296810
V   -20.092026 -36.101173  11.434809
Cu   14.301803 -22.584148  12.725148
Na    6.903458  -3.992117  39.766882
Ir   -0.742204  10.573299   9.381399
Sc  -25.539792   1.887771 -19.773622
Cd   18.995863 -32.653755  16.060179
Ba  -22.406637   5.509072 -26.136501
As  -26.855002 -28.781541  10.060647
Hf   27.185549  17.844608  -6.040246
Ta   35.782378  19.848585  -5.093180
Er   -0.978262  12.900486 -34.341603
La  -10.348239   9.459075  11.885086
Lu    3.600144  -8.204080  -5.441877
Tl   36.179204  13.312203 -20.800975
Lu  -25.215869   0.425075  16.082296
Sb  -27.774296  15.034236  26.275540
F    28.372441   7.354510  15.484413
Te    6.405979  -3.004456   4.651825
Pm   19.496580 -13.922984  25.372398
Hf   28.617706 -17.088358  25.562590
H    -6.954982  30.030211 -13.315979
Si   -9.233558  16.206802 -33.033996
Pt  -34.464221  12.272324   9.778293
Ho   13.715731 -22.448622  33.869200
Tc  -25.393086  18.185070  33.201836
Ru  -15.919424   6.974855 -31.127264
Ge  -18.034570 -33.542657 -14.809326
Se   16.542247 -34.551877   8.642691
Ar   -1.350936 -12.914928 -42.651606
I   -36.399287 -15.763518 -21.927932
Pb   19.310858   2.141234  33.686394
Te    3.665753  37.892385  16.923237
Fe   -9.760882   5.779320  -5.085657
Ba   15.827391   6.856058 -33.622489
Cl    4.072554 -12.564147   7.335682
Te  -24.830347   1.249586 -25.882551
H   -22.710541 -13.857779  -8.139462
Ba   25.617381  -9.209964  19.372439
In   13.482304 -24.804295  23.336453
Be    4.244017   6.280916   4.885682
Ca  -22.762584 -16.059087 -21.689343
O    13.880702 -39.493133 -17.313075
Eu   12.514500 -27.869095   2.002110
Ga    3.787663 -33.578197  -7.301618
S   -15.365171   9.652325  -9.544397
Kr  -15.397670 -18.562597  22.941590
Pd   -7.487076  19.969613 -40.333181
Hg  -20.126887 -13.298197 -27.174370
C   -16.256111   8.512885 -20.149975
Cd  -26.530573  14.778320  10.434727
Cd   12.362270 -16.615908 -10.684098
Po   29.703441  12.656689  24.590375
Tm  -39.841713  -6.740932   7.920706
Li   39.905871   8.357131   8.201598
C   -17.657498  19.816778 -13.128987
P    30.544310  22.825660  10.132050
Sn   -7.272799   4.687262  11.330483
At  -29.396119   7.987546 -18.312105
La   27.621992 -23.086119   7.624917
Ca  -15.560043  11.931585  10.209653
Si    7.838447  27.324060  -9.281282
Cr  -18.862689   0.291369   7.421357
P    21.551468  10.683054  10.690818
Cs    0.660721 -26.257813  18.851316
Ne   19.700577   6.995799  13.875126
Hf  -23.404974  -5.434775 -13.019398
Br  -12.794804  -8.601104  -3.765363
Gd   10.049209   5.173583  43.799307
Pt   34.140366 -29.366983   3.451777
Eu  -20.740818  28.365136  26.480770
Er   -8.625786  11.906215   2.362907
Re   26.843178 -24.589071   2.621598
Ti  -29.442662   4.883921  27.229479
Cd   33.348058  14.803596 -12.794321
Ti  -13.636691  25.079131   6.918918
Pd  -13.112517  13.884017  23.018602
Be   19.246657   9.776871 -27.101383
Ni   19.927383 -32.716726  -7.166346
Ba   16.315414  19.842683   5.369526
Zn  -34.319424   1.358081 -20.652374
Os    1.408890 -33.445126 -29.458062
W    11.706704 -14.959636   9.963102
Dy   17.716675  -7.984649  -3.072467
Se   28.724061   6.561825 -10.267382
Cd   30.739915  17.304946 -10.385057
Tb    6.075723  -1.827853  35.952646
N     2.660019  14.701544  -5.488838
Zr  -13.435823 -36.313323  11.048849
Na   -9.283399   4.321638  19.331698
Cl  -17.343859  18.657651  34.010558
Ce   -5.550927 -31.254910  32.492694
Ba    9.653261  -8.292472  -0.213535
V    -0.235269   1.902749 -36.438865
S     6.219861  14.053695 -26.645270
Tm    1.953459  14.597673  -5.888625
Bi  -14.167924 -22.677767 -12.584114
B    45.071407   4.713619  -3.506639
Mn   -7.697944  26.449451  11.072015
Zr   20.653087   9.680937   4.504430
Mg   -0.547396   5.064204   7.028220
Ca   14.893703   5.076320 -25.991273
Si  -39.577841  17.261966   8.406989
W    -8.006004 -40.737845  -5.563524
Cd   36.784388  16.254865  -1.789238
Sc   -9.798204   4.406351  25.115994
Ti  -34.818299   8.276656  26.086761
Pm   20.412059   4.731528 -29.996652
Au    0.442374 -18.979864  28.719030
Cs  -12.018525  36.218339  20.567912
Sr  -13.342869  13.774924  15.493683
O    14.333415  11.498902  22.081845
C    17.203138 -28.269116   6.605487
Gd  -29.570414 -23.291843 -14.683610
Er    0.363437   5.973020  -7.665670
F    -0.494047 -15.993906 -29.903517
Cd   32.324332  22.034432  -3.491905
Ba   22.419964   5.785760  27.056226
Ar    4.075755   0.996685  42.496107
Eu   -6.608084   2.057863  -7.589514
I   -29.763343   9.748478 -11.116399
Kr   34.966763  29.302452  -0.858517
Sn  -12.510748  18.641833  16.737196
I    15.393299 -11.427084   1.201064
Tl   -6.804923  -5.750739   1.811569
Sn    5.759461  -9.120793 -21.046041
Re   18.628006   6.656679  30.420813
Rh   10.785400 -11.336369 -22.658785
Pm   21.824764   3.263017  27.764035
Ca  -14.615076 -35.197158  12.104042
Pt   -1.728763  20.767319  38.672693
P    21.066203  35.624320   1.194690
Zn   -8.028176 -41.159585  -7.273427
Si   14.730175 -16.093679  19.253277
Nd   -9.131540   2.236966  43.060279
Si    3.177078  36.132037  25.427665
Li  -16.071430 -27.320297  22.586034
Rh   -3.055320  10.380158  24.779900
F   -37.289245  24.782741  -5.386628
Ir   13.686006 -29.411623  13.387319
I   -29.193027 -26.543434   7.154588
Ir  -38.234617 -13.076713   8.555588
I    22.706778  -5.148894  23.760078
Mn   -2.706685  10.278090  -2.197885
Eu   -8.617603  10.204275 -14.045831
Tl   -1.897930 -39.771428  -6.163602
Zn   13.441008  25.106002  32.509271
Ge  -16.339379 -37.538486 -16.194111
K    -3.042431 -19.223076  22.073629
V    -2.184782  12.518598  27.894098
Pt  -34.330924  -8.105865  -5.120258
La    6.328739 -12.741917 -11.335819
K     0.002038   6.022309 -16.693428
Nd  -17.911147 -24.767878  -4.853766
Ho   -0.044937  15.218687  10.806611
P   -11.831268 -17.432916  11.179513
Cd  -31.307230   5.210163 -21.875425
Po   38.633667  18.670279  -4.321831
Si   10.363661   3.269541 -27.580918
Hg  -10.848046   6.506377  25.553265
Mo  -10.549855  -2.895851  28.880001
Br    5.685468  14.048434  20.663473
Ce  -31.742414   9.374373 -10.199301
Eu    5.783714 -37.516237 -23.607140
Rb   17.223279  15.002064 -25.122899
Nb    3.491152  28.601642 -31.868302
Pm    3.369811 -21.785330  -5.033410
Ar   -5.698312  14.493395  38.746961
Ar   27.169147  -0.229771 -25.493981
Sr  -38.579141   6.914399   7.485231
Ti   40.759280  -4.659643   7.272816
Gd   21.167942 -39.233805  -7.304074
Tm   15.491271  21.649888  34.629835
Sc   26.344229  32.946812  16.470887
V    35.471041  10.073869  -5.712522
Pd   18.196451  10.351374 -18.923575
Ti   30.961472   2.605479   4.057335
Kr   18.142183  11.975630  -0.347356
La  -35.663250   8.709038  18.464818
H   -38.519850  -9.126798  -7.150581
Zn   -2.553415   4.653369  44.318127
P   -32.785367  -3.209294  10.169987
In   43.955559  -0.347251   2.181145
Cr    2.012880  -3.306856 -34.387817
Ru  -35.171501   9.766033  -7.391305
Mn  -18.839424  -5.165036 -35.022285
Si    0.592001  -7.130254  33.115894
Hg   33.556934   5.071684  -0.657494
Pt   -8.679742 -14.415646 -24.413925
Si  -12.896882  34.537098 -19.402655
Tm   30.183970  24.773793  -8.943694
C   -21.295428 -20.114343  27.699620
Na  -30.409041  19.784446   6.510239
S    36.927915   8.492117  15.858006
Ni   -4.594594 -31.902139   8.870341
Zn  -33.155503   9.058533  -5.166195
Ta   28.983997  -0.744156 -10.849656
In  -11.801546  17.847520 -31.904302
Be   22.360680 -22.456460  18.505148
I   -14.890116 -14.400601  -3.583441
Po  -13.938812  -5.085658 -32.327464
Tl    0.067887   5.593064  42.297526
S   -14.113086  13.983161  38.627326
Y    -5.175091 -10.536157 -40.610843
Ca   16.993937  -5.968334 -28.764636
Ge  -23.315974  13.827197 -32.093230
O   -26.703862  18.858850 -30.952090
Cl  -17.116494  39.059889   9.731075
S    16.273868 -27.605649   9.023371
Mo    4.441194   2.403090  -3.355607
Tl   -7.815887 -34.015228 -24.676091
Tb   34.204891  15.279885  -1.065929
S   -21.965607  17.784661  32.237273
Ga  -25.012559  -7.407403 -26.116903
Pb   -3.564446 -16.668097 -12.619753
In  -35.568824  10.580579   7.181934
Bi   34.343664 -18.295127 -18.473576
K   -23.159475  28.766659 -23.198651
Mo   26.309138  11.028401  34.304004
Xe  -16.156750  -4.636765  30.775763
Gd   12.481457 -11.392939  27.630310
O    16.153370  -4.667035  -4.239570
Rb   -2.618998 -36.336029 -18.178314
Kr  -22.611792  15.825527 -11.680914
O    -0.253037 -16.838501 -29.678162
In  -15.848254 -13.656997  29.034176
K    17.908882   1.983354  37.532064
Rb  -22.279729  -0.287695  34.609040
I   -24.561103  11.496736  30.095315
S   -12.215519 -11.336296 -34.607723
K     0.369652 -23.312645  32.787521
Sb  -30.787850   2.519203 -10.037107
N     5.615200 -19.125449 -17.518572
He   14.728115  14.424702  39.682970
Ba  -11.199644  30.796311  -7.875516
Rh   13.431766 -25.240853  13.826516
Na   24.441297   6.557333  22.257415
H   -23.222774  25.401742  -3.779013
Rb   21.653737  34.491996  -8.091528
Fe   -0.174850  16.378087  13.076998
Br  -20.410457  25.433693 -13.032311
Rb   -6.405586  -4.244570 -40.021101
Ir   36.583830 -26.961986   1.352973
Mo   13.326862  -4.500976   3.887246
Kr   36.089383  11.752889 -23.737632
Cr   -0.973766  29.664691  33.279436
Ar   -2.055661 -43.455835   3.642914
Au   23.549913  -7.825144 -36.628960
Tl  -12.723502  16.866371   0.783052
Al    9.165108 -30.411153  23.284109
Sm   38.214114  -9.348911  10.057041
Cs  -33.683936 -14.836689 -25.331659
V     8.834792 -25.117813  34.313791
Gd   -5.537424 -44.537215  -6.318439
Hg  -21.230677  11.250746   2.484598
Yb  -16.415990 -35.713508  17.505947
Kr    2.149952  23.878933 -14.754496
Os  -28.695669   3.571458 -27.155065
Al  -20.116136 -10.174950  22.219938
Mn   11.459724  27.242926 -21.145279
Ta    6.333133  11.615386 -29.834014
Cs   20.622696 -23.648505   4.103800
W   -39.796578   5.392699  18.436812
Gd   15.876273 -20.733044  10.547031
C    25.194090   2.584775 -35.422237
Bi   11.040876  -3.633266 -19.254527
Cs   -0.814621 -30.977650  32.223469
V   -14.194542  13.825368 -14.650388
Er   13.062437  11.738933 -37.629547
W    -3.321081 -12.771374  14.755604
In   14.724686  15.996698 -27.405443
Po   21.850203  36.579523  14.438537
Tm   -4.264479  -7.026494  11.378310
Fe   41.390303   7.482434  16.220414
Gd  -14.155195  -7.158229 -32.708464
Cu   23.227108 -10.238140 -11.823501
Zn   37.261536   2.965790   6.230292
Tm   -7.716643 -15.993760   5.487068
Pd   20.008885 -10.434786 -39.610141
He   25.820553  -2.012276  17.170216
Si    3.555981 -34.431421 -13.511556
Tc   19.860002  36.998534 -16.659365
C   -16.549553   1.822492   3.378091
Dy    9.243123  -0.887234 -41.164774
Ce   -8.121855  -8.103811 -15.305509
Po   28.213677  -6.409365  17.391640
N   -26.981697 -20.915215  22.445156
Ne  -30.662946  -5.212286 -24.282676
O     1.517326 -21.892113 -16.227553
C    34.873241  -9.299941  -1.335105
Bi  -31.573008  12.259449  28.901725
Re  -15.785366  41.735298  -2.964996
Tb  -27.405616  -3.856582  10.716822
Mo   -6.571834 -21.588780  38.935454
Kr   -8.024279  35.604033 -10.512011
Al  -25.412666   2.093313  29.381223
Cl   -0.433420 -14.312275 -34.833310
Se  -14.973015  -2.207969 -26.944810
O    26.610720  -0.417184  36.665014
Tm  -24.692183  18.246398  -0.699794
I    44.963541  -1.975603   2.421228
Mo  -12.785062 -15.753471 -36.632269
Bi   -1.415047   9.053322 -41.729465
La   -9.883302  24.457799  21.241438
C   -10.651677  43.206518   3.007015
Sm  -34.865628  -1.478182   1.492043
Sc    5.869626 -20.187481  27.011326
Po   21.829110 -19.561456 -14.268090
Cs   -0.038566   0.343056   3.798353
As   22.113365  -7.034577 -34.671188
Cd  -12.927964 -13.429561  -1.506460
I     0.401314  -9.571987  32.134306
B     7.397635  23.969509  16.357496
Cd   25.607381   3.666685  -5.773590
Ru   -4.593673  28.313442  30.049843
Tm   -3.236627  39.483240  16.814562
Te  -21.025564  35.509359  18.908930
At   32.265288  -5.473361 -11.723904
Kr  -10.585825  -0.169406 -36.448128
Pd    6.532768  37.139357 -11.749843
Sn    2.671419  32.655719 -10.147207
Pr  -20.715945  -2.678366 -16.696479
Mo   16.791338 -17.328865  -7.020385
Zr   -8.690638  28.257026  -4.665426
Be   15.464504  25.900978 -24.133365
Y    -1.207577 -15.574049   2.869906
O   -35.831928  21.687475  12.250723
Tb   16.561841  -4.994166  30.590609
V    16.468938  12.460019 -15.503865
Ga   -2.332838  14.539379  41.622953
Cl    2.877850 -32.507470  29.091121
Hg    8.484236 -11.448143 -12.632413
Gd   -0.905824  21.870661  26.840689
Eu  -29.301358 -11.404023  15.713388
Yb   28.896138 -21.800804 -18.404049
Hg   24.417274  -9.086181  32.247906
Se  -23.337386  11.368122  31.189884
Gd   21.769099  -5.168195  33.650716
Sn   -2.860172  -4.456700  19.692391
Cu    8.753313 -21.172759  -3.708557
Er   21.801769   4.094907  22.703119
Br   22.438835 -14.728296 -12.422680
Cs  -14.340733  12.029707  19.108688
Lu   -0.638307 -32.535018  28.747856
Co   -9.493503 -14.868616 -31.279435
N   -35.955783   8.507144  -4.790217
Rn   42.378714  14.273483  -8.967631
Tb    8.920331  18.004648 -21.716678
La   23.457832 -32.309271  -9.445858
Br   -0.292471  -0.730925  17.832239
Rn  -27.898734   9.622101   5.425386
N    -4.660648 -39.286532  12.613281
Ir  -35.204536 -10.826812 -15.733504
N     0.454563 -24.608285 -14.374085
Re  -36.840454  -9.911123  25.040597
Sr  -15.539387  -7.322903  -8.507869
Ce    1.198283  38.078671 -19.166277
Sn  -29.599316  24.471930  14.837550
La  -23.573472 -13.341976 -25.205010
Cs    4.875242  19.030322   5.159967
Xe   -7.984715   6.481526 -43.711394
Ne   12.049602 -19.910961  38.094148
Xe  -13.095023 -28.872113  13.470688
Hf  -22.871320  16.461585   4.907400
Os   17.784283  -9.944215 -30.939827
Kr   21.944304  30.772704  -5.340473
Tm  -19.272055  28.220753 -10.481530
Cl  -16.243791 -19.367222 -30.890792
Xe  -19.229366  -8.341850  -3.618551
Er    6.292978  15.909450  11.196110
As   18.208948 -11.584642 -11.000395
Lu    2.200212  26.226518  -8.520310
Hf   35.131058 -18.662169  18.531083
Br   17.400989   4.528296 -30.255464
Xe   21.069993  12.016373  21.936301
Re   29.424457  -4.792421  29.779798
Ta  -14.792355  36.263549   2.718772
Nb  -20.350505 -38.488154  -8.775552
Hf   15.086938   8.024443  40.341679
Tl   18.303018  14.639161 -24.961861
H   -16.751021  24.175207  26.763181
O    18.166084  -5.932783   6.749289
Re  -10.847146 -15.578249 -36.730205
Au   28.135642   0.266533  18.385849
Mo   -9.134755  -3.160501  26.550574
Rh    5.116962  -1.479552  -6.078527
La    8.439789 -27.092527   7.963105
Po  -19.225338  -3.172937 -10.863305
Lu   -5.550697  -0.430072  20.616963
Y    32.896720 -28.715737   5.404634
Pr   34.989106  22.899613  14.767331
P    -5.984777  29.670444  23.738694
Au   25.805876 -11.720793  21.516133
Cs  -30.888720 -20.926049  14.959146
N    37.265069   5.545873  -8.669729
Kr   33.758248  -1.277649  25.733836
Te  -22.922066 -18.335995 -25.426909
Fe  -17.415482   1.903027 -22.069364
Ru  -10.558410  12.173918   6.346235
Co   -2.288895 -15.994941  40.244749
C   -29.001129  17.126693  20.659033
Ne   -8.545180 -23.854538  32.152954
I   -26.432040  -3.276081  -8.726069
Li  -18.721400  14.638805 -25.113225
Ba   -1.865373 -36.109150   4.443520
Ag   10.781767  -9.831534 -37.298848
In   11.597363   2.444706  20.770469
Ir  -14.351865  14.794511  36.114396
Po  -17.619898  25.737621 -25.427750
Ne   -0.840866 -16.386652 -35.974439
Os   -4.523946  -6.887504 -23.311314
Ca    0.687300 -28.851443 -11.701402
Yb   -5.388683 -16.461740 -32.792541
I    -7.839333  34.813256 -14.760710
Sn   -7.584267  14.092686 -20.986417
Ba   22.216506  13.759718  -2.915012
At  -24.839028  13.370284  24.555666
Rh    9.745168  36.954220  -3.953998
Sn   -8.859248  -0.764912   9.115617
Sc   -1.782181  19.945375  24.966652
Na   19.697117  16.544200  -3.855945
Sb   14.364143  -8.036125  34.665700
Eu    0.095240 -36.164286 -27.357215
Tl    4.291247 -38.396416  -2.939007
Bi   -2.887525  16.201123 -31.698451
I     2.891623 -20.188308  36.728060
Ga  -11.367848  37.641308 -20.960167
Ir   14.037552  18.636399 -26.477478
Ir   -6.053995   9.581188   0.662546
La  -21.999289  -6.612290  38.510206
Pm   11.889013  20.571051 -23.113447
Cr   -4.528675 -34.014576   7.355537
N    21.673988  38.108868   0.666301
Pd   11.289458 -23.854457  21.864071
Al  -37.256196  14.101338  13.644397
Ho  -34.969191  -2.793644 -25.963083
Kr   21.525343  28.361272  -8.587601
He  -21.246166   6.081587   9.203873
Pb  -37.779435  13.488924  11.498287
Zr    2.156612 -14.782654 -31.200344
H   -22.744859 -25.284883  -5.813456
Sm    7.081222  13.069895  -2.516640
Ru  -14.971715 -19.592094 -35.758649
I   -19.009713 -27.958024 -15.381274
H    -6.973939 -38.660469 -13.381935
Ca  -29.562086  12.454495 -30.274702
Er  -30.519133  21.476986   8.772597
Hf  -14.943610 -24.381284  33.317501
Br   18.540442  -9.911686 -29.086674
Rh   -2.185607  22.688094  32.490354
N    28.823044  -4.540238 -13.444309
Nb  -22.881112  12.621633  33.938851
K    -7.760334  -7.988031  13.169261
Pr  -27.721337 -27.595026  16.213439
Re   -2.194705   1.074410 -11.304609
Dy   31.667505 -24.422328 -18.364640
Tc   -2.605828 -11.964444 -38.865479
Zn  -40.113918   8.267822   3.214835
V    19.113136 -34.212295   8.135169
Tb  -31.745505 -14.389442 -13.584996
Ho   16.332873  29.525469 -24.076421
Be  -24.168504  -5.020020 -19.620146
Be   -7.883333  43.659125   1.931589
Dy  -11.042200   5.211808 -20.961913
Ne  -24.323919   1.289378 -35.982447
Lu  -16.966941 -27.633444 -10.821594
Cr   16.924840 -16.755947  33.776678
At   -2.629614  31.888671   0.259080
Tm   18.046056  27.511175 -18.809677
Zr   17.646651  32.387147 -16.556523
Pb   -7.916748  35.410613 -13.974137
Pm  -31.443802   2.178569  32.814449
La   21.183796 -23.429052 -26.951894
Rn  -19.187856  -0.977327  -4.875425
Pd   27.786012 -10.341406   8.822758
Pm   19.269161 -16.215287 -21.488632
Ho   16.451987 -18.377320  38.162002
Au  -19.603841  13.943975  30.662170
Ag    0.428764 -29.691653 -29.231765
Ir  -19.935984  -5.051061 -39.115198
Tb   -6.920429 -25.932499  30.515620
Al   10.182236  20.667206  11.633413
Br  -42.404008  -0.990025  -7.114668
C    26.772954  -9.736219  -1.191346
Tc  -25.032385  -3.151633  19.827240
Tl  -19.096883 -17.871738   2.461089
Ni   37.052433  10.253865   0.075374
Pr   24.722223  -3.797410  24.960093
C    33.275700 -23.582811 -15.333726
Be  -25.993184 -29.626649   9.699840
Ho   -8.283165  19.912922 -23.661101
La  -12.804696  24.348739  -4.220495
Tm  -21.654161  -6.662029 -31.672839
Er   -1.948144   5.243684  20.302084
Yb    9.189493  40.026818  10.603570
Br    8.887800 -36.805886   5.644742
Pd   23.656565 -29.774955  13.281846
Cl   14.186976 -24.675940  -8.519600
Rn   -6.856059 -29.781928 -17.509178
Co   -2.289065   3.413782  35.634882
Er   -7.901849 -33.130947 -12.488029
V    28.625428  13.420854  -6.554410
B   -40.372957  16.665534  -2.240474
Li  -31.624664   2.457938  20.852912
Ga  -11.465984   4.253586 -32.401449
H     7.792014  -7.686806  12.325525
Fe  -12.137096 -32.293083 -25.028847
Cu  -35.519455 -22.229306  -2.390537
Ge   -7.378141 -42.021363  14.699905
Sc  -25.388004  28.004337  -0.217231
Cd   38.741139  -6.744457 -19.134820
Fe    1.114757 -30.521414 -16.291454
Ni    1.482639  -3.457426   2.725351
Si  -27.276914 -24.056234   7.432269
B    28.063845  -9.055713  11.994313
Cd   -0.100368 -12.405223   4.991156
Mg   24.420045  17.873025   4.614512
Ne   19.398581  -4.157020 -30.997102
N     0.037952  -6.769083  40.803958
Y   -28.844252  -3.344299 -32.158671
Mn  -30.139590  -2.623530   5.236731
Li  -13.680962  16.820026  11.272587
Er   -5.581379 -32.056518 -16.423119
Mg   24.881981  20.422987 -29.302088
Ti   -8.698523 -21.150892 -36.718911
Y     1.100728 -30.090840   5.067771
Dy  -15.137003  -2.852938  14.388409
Ag   24.761640  24.467310  -3.525051
B   -34.400933 -25.644122 -14.830832
Tm   -2.223384 -37.722912 -20.899733
Br  -19.295685  -6.267071  25.444216
Ge    9.453636  17.450026  22.778047
Ru   23.075198  -2.350775  33.846028
Pr    3.435333  14.369243  24.995723
Os  -22.374566   1.348249 -14.532742
Zr  -11.495587  -3.242665   1.275794
Sc  -13.573848 -25.740138 -18.404819
P     7.945719  19.351024 -17.685879
Ti  -12.863946  17.478959 -32.526036
Rn   38.772722 -19.174612 -10.027820
Se    0.770887 -33.348346  23.666686
N   -11.200797  20.706663  38.642069
Sr  -20.709524 -28.686444 -20.049909
Pm  -14.209542  11.649466  10.490332
Dy   11.887601  -5.473632  32.237777
Eu  -21.979684 -19.548558  -7.975450
Ne  -23.285713  30.271997   3.423000
Pb  -26.766506 -15.684504  20.995954
As    0.617782  36.295035  14.176664
As   28.681998 -15.287101 -12.356356
Sc   -2.023055 -12.060969 -13.060756
Dy  -23.049388  23.050508  28.221640
Ni   18.545743  10.266826  26.699854
Tl  -40.604658  -3.603464  -8.430122
Dy   -4.711627 -26.544398  -8.160528
As   34.349250  16.330233 -21.388843
Sr    0.180339 -10.301701 -15.871256
Au   -1.519260 -16.664412  22.443484
Mo   11.028803 -19.274858  -8.177278
Si   -6.442424 -42.764820  -2.698181
Zn    7.381906  -1.960531  28.874127
P    23.092960  17.893583 -15.661172
Gd    6.898757  38.096571 -18.253228
N   -11.963319   7.291675  -7.983892
Dy   32.331564  23.192045  20.605219
Mo  -23.456516   3.063936  18.609726
Se   -4.310200   5.466667   8.983893
At   39.781070  11.051413   6.107771
K   -33.677948  11.362173  23.936738
Rn   17.208376 -12.706536  16.776341
I   -19.406679 -17.558742 -24.124367
Tc  -17.141881  10.706242  -6.460818
Rn  -31.977792  27.990416  15.428561
B     7.685912  -1.022327 -37.931298
Sc   -5.022627   5.607595 -29.335982
Pd   36.428328  20.140297   5.942595
Ti   -7.258563  34.287870  21.480795
Au    8.628228 -11.953108  34.291802
V   -32.309900  24.554194   1.559001
Ge  -17.595897  -5.870467 -19.023621
S     4.880730  -2.852829  31.764603
H    -5.124970  27.152268 -30.251476
Dy  -10.324567  -9.108711  12.466349
Eu   17.226274 -31.282831 -26.667088
I    15.750187 -11.423200 -19.608048
Er  -30.190002  -2.649576  -4.146267
C   -19.672713   1.667614 -11.122372
Os   36.628925  10.067527   8.584950
Dy   -3.745622 -21.454722  -1.740091
B    -9.793547 -24.669298 -11.325138
W   -15.690698  -6.807802   3.328033
B   -17.948204 -18.826687  26.253586
Lu   27.820405 -17.609829 -12.505595
O    -6.894881  -3.518215   1.712087
Ne  -14.305127  -0.156405 -38.076647
B     1.966637   5.539296 -39.508702
Zr   18.943635 -14.600513 -10.105550
Pt   13.767107  -7.020837 -23.040255
Mn   13.308514  21.941871  17.376675
Al   18.659646  29.217644  21.918544
Cr   20.934219  28.092659  12.347269
Ni   16.845948  38.079123  15.954987
K   -18.613521  26.488591  -1.779106
Kr   25.016748  31.055040  -0.048676
Pd   33.064438 -13.852711 -10.409078
Er    4.926193  -8.549488 -13.172007
Mn  -21.545900   6.648850  33.662450
Sr   -2.181270   0.676151  32.631708
Ag  -10.562750 -24.498361   1.609242
Fe   -9.188810  12.325382  39.184244
Hf  -26.367714  -7.953297   2.042367
Pt   16.126372 -34.988077   5.154228
W   -10.265373  13.773736  -2.217628
Dy  -27.229339  -9.486014  -6.754597
Cl   13.223339  -9.347491 -38.454189
Sr    1.559078 -19.674410  -5.926248
Lu    9.444178  38.745701 -11.493721
Nd   25.356876  -0.065550   0.431604
Rn  -33.475845  -4.317581 -21.793761
Ag  -32.175048  -2.212492 -16.931733
Se  -11.798257  -7.362347 -30.927406
Ar   37.264878  -2.455412 -20.029962
Pd   28.745830  -1.671162 -33.043050
Y   -22.001427  20.774374   4.645335
I   -30.437700 -14.414072   8.823788
Sm   18.380979  -3.286722  32.122115
Kr   17.889062  15.680362 -25.844095
At  -27.756123 -10.141567 -32.678132
Cl   37.288709  -0.986492  13.297894
W    15.398611 -28.487974  -6.832133
Au  -17.224137 -38.514377   3.152823
Ni    0.289997   2.991104   7.787191
Lu   -1.432052 -21.699765 -32.295405
Rh    4.538179  40.959889 -18.905273
Rh    4.546117  32.551985  25.341401
Sn  -26.878805   5.058188 -13.361713
Tc   -0.375146  -5.494229   7.695837
Dy   15.980378  -8.012435  28.643759
F    12.751977  13.804899  -9.063935
Ti  -19.394135   3.226361  36.890140
Bi   -0.400334  -3.693902   1.355455
Pm  -20.343493   3.715899  38.498926
Ta   33.771940   0.715155 -27.081047
Zr  -32.534220 -26.180983  -2.303462
Pd   36.073312  -2.315193  27.499987
B    32.270495   3.273371  19.892950
Mn   13.302473  31.919853 -10.832849
Re  -38.338367  -5.877933 -12.080481
Yb    2.156243 -26.152331   0.026287
Sr   -7.870354 -17.330259  15.937185
Cs   35.159003  18.984588 -15.353462
Hg    4.612833   5.223174   0.538883
Y    16.774627  24.295460 -10.058313
W   -12.123150  32.175683  14.991434
Br   16.732361   4.522993  -4.031020
Hf  -21.303764  17.075316  34.922553
Cd  -34.062460  -7.186387  18.147043
At  -36.843818  22.209975  11.418808
Se   -1.778302  27.235719 -36.345525
He   -1.828950 -28.659835 -35.257735
Lu    3.040502 -43.762878   3.280697
Mg    3.290510 -20.496948 -12.787908
Yb   30.681358  16.037536  16.587316
V    -8.915621 -41.717759 -11.985368
Rn  -20.305809  15.097503 -34.538461
Eu   15.661072   1.121793  18.080816
Nd  -27.194997 -25.397450   4.589407
Eu  -10.366130 -12.865532 -32.871672
Rn   11.524267  18.883610 -31.807368
Mo  -24.376014 -30.076258  -2.513065
Nd   27.957460 -22.044709  -5.790093
C   -10.153797 -21.335267 -14.391199
V     5.211149  24.871618  30.063445
Pr   -2.215017  21.037366 -11.803059
Eu   19.222750   0.273465  -8.137719
Hf  -13.031116 -20.392275 -28.718235
Ag  -11.937085 -36.268907   1.132241
Er   -1.138180  -3.682967  -1.434949
La    5.357175 -32.924051  13.485817
Au  -23.128257  29.463812  20.714227
Rn   13.906558  29.791227  27.542586
Er   -2.293112  -2.767990  44.541002
Mo    9.349428  -7.966690 -20.977568
Ni  -35.306425  -4.576680  27.640448
Ta   32.878545 -25.691311  -8.221438
Ge  -22.749314 -24.711837   2.265708
Y   -12.884652  15.699826 -10.881069
Ga  -14.536436  23.248829  29.470562
V     3.718309   4.081813 -19.951069
Br  -34.169807 -16.436029 -23.691807
Sb   41.908837  -2.937022  -5.374451
Ta  -23.512668   0.753507  -9.429989
Ag   14.400455  25.543096  20.455782
Br    7.644387 -30.024808 -13.977510
Ne  -23.787997 -17.441789  19.044136
Cd    5.030294 -12.993835  38.282986
P     3.192657  42.849098   1.351121
B   -32.194899 -19.132576 -25.790713
Mg   -2.583507  16.937699  24.153356
At  -28.091773   5.182924 -13.807495
Kr   11.372790  -3.590212  32.562578
Co   -1.564158  13.022680  -5.694145
Li    5.803804  -2.399530  32.167536
He   27.042900 -16.305989   0.645510
Mo   12.636391 -18.711206 -27.789682
He    1.809583  27.957233   7.367106
Dy  -16.233102  -6.850970 -24.956689
Pd   11.762387 -17.313249  29.063395
Pt    6.484354 -27.266797 -25.003253
Po   37.588207  20.162740 -10.132555
S    38.408710   5.452327 -12.210393
Pt   13.922513  22.141516 -25.031377
Xe  -19.749503 -17.092232  -8.469475
Rh  -17.890295  31.261238 -22.728874
Li  -37.425320  -3.735990  20.277379
Pd   16.972371 -22.374242  -6.619949
K    15.895414 -33.879441   5.402972
Pb   30.134309  -9.297168  10.775239
Xe  -11.377174 -41.545240   2.331072
At  -22.989169 -35.123446  16.504263
K   -31.728957   0.151207  21.250881
La   -6.216579  39.264440  -4.313756
V     1.781132  16.111272  -4.280058
Ba    7.178617  14.886464 -28.376140
B    17.375026   7.680438  40.294421
Pb   -9.212587  35.301214  -7.790023
Ne   21.420251 -38.749490  -1.948167
Rh    3.190991  24.990232  20.926603
Dy   -8.528987  23.967899 -28.774019
La    7.237519 -25.033425 -20.749806
S   -35.051088  23.106195 -17.915581
Au  -11.723305   9.801015 -16.967688
Mn   22.616152 -15.160756  12.083688
Bi   -3.655890 -20.068611 -33.873755
K   -34.100824  11.809071  -4.047391
Ge   31.943192   8.831916   7.817380
Cl  -19.535057  -2.892084 -19.654195
Ge   21.816856 -27.505965  27.329892
Nb   13.482806   8.531877 -32.223586
Xe  -16.597627 -11.466362  38.445568
Re   38.664962  13.296125  -1.571752
S    19.278065  19.304863  10.934625
At   27.731239 -21.165042   0.313901
S    -2.589410 -10.200832  -8.336507
P    24.694222  -7.113084   9.078718
Kr  -15.852971 -12.104292  13.670573
Cd   24.259247  13.868189 -26.711616
Pr   17.732065 -22.088888  18.467525
B    -6.587714   5.764734  10.370865
Si   26.664810 -18.716210 -15.201698
Sc  -18.681916   7.548137 -14.829314
Se    6.292592  -0.413007  -7.811015
At   34.951280  23.232681 -16.303129
V    -1.136193  16.666077 -39.715001
Au  -12.228403  14.011452  23.711148
Pb   12.275991  34.080803 -24.238288
Ga  -14.766604  10.543993   1.176497
Pt   15.437737 -18.615969  25.881499
H   -16.734652  -6.266859  -5.009342
Ag  -16.968669 -19.373611 -27.270548
Ta   -4.676555   3.903476 -10.386128
Nb   29.255324  16.836708  28.708098
Sb   19.523789  29.953114 -26.544724
V   -15.595077  31.716120  19.902047
Pb   -8.800992   1.626777  -6.980720
Cd   -2.229811  11.569922 -30.234278
Si    4.003790  -5.058594  17.040645
Hg   -1.272314  28.825228  30.063841
Zn   29.753291  13.903980 -26.230389
Na  -19.518607 -35.048172 -21.172847
La    0.633482  -6.040498  19.640074
Tc    0.269171  38.108254  -8.662343
Be   32.991521  -3.272428   2.889376
Mg  -24.713201 -26.400378  10.031700
K     9.020205  34.207302 -13.452835
I    -6.520307 -10.365160  14.219577
Mg   13.588003   7.267982 -40.286002
Rb  -36.281112  -0.373150  -5.716631
Te   18.906557  -1.045751 -15.336577
Gd   40.847775   0.984522  -2.567726
Ru   38.605270   7.502494 -12.000796
I     1.272081  11.458209  12.133658
N    12.018876 -38.109373  18.279629
Ar  -15.985297  19.169227 -24.804237
Ho   36.740699  14.206123 -12.180623
At  -28.654809 -32.851860  -3.122145
Te   -7.226238  32.889388 -14.917806
Cu   18.959582  -9.034140  27.765183
Cs  -12.954438   9.421784  15.199258
Yb  -16.307754  31.887488   7.109096
Ca   -5.175301  15.126889  -8.388579
Pd   23.331540  15.357663  -6.014084
Hg   18.292543   5.633328 -37.604255
Si  -22.975289  19.605771  30.055918
K   -22.496495  11.047007  14.097164
Al  -10.397875 -37.588421   2.773138
Kr  -32.943969   6.140316  -3.158864
Cs   29.271171  26.743173  -0.041578
Pd  -29.775804 -14.289329  -9.190226
Pb   12.060623 -28.229941  15.078664
Sb  -17.942423 -19.198391  21.721094
Nd    3.344513  14.260385  25.951417
Sc   32.362425  18.485692   8.967938
K    -6.000188 -29.676333 -33.720223
P     4.686635  -9.406988   4.322187
Ce   19.539000 -17.538141  35.822664
Ru  -16.587363 -10.691407  25.510256
Yb  -11.934803  15.785429 -14.109751
Dy    0.156908  20.403842  24.122467
Ta   -9.332407  -1.215238  -9.482002
Tb   -3.760998  22.291092 -24.378868
Cl   30.136690   2.252126 -21.282180
Cd   -3.157883 -26.570969  22.747589
O   -37.529729 -22.061635   5.913572
Be   12.457038  25.678479  -8.816720
Be   -0.192286  15.339346 -23.788329
P    13.189565 -19.715826  18.866803
Ne    1.411583  10.379375  37.806356
W     3.919334 -34.480086  12.099022
O   -15.733070  21.096411  16.207214
Zr  -14.855764 -21.547925 -35.592076
Br  -11.172953 -15.805360  20.661231
Xe  -17.517385  16.463142  14.862844
Sr  -10.448333  11.786054 -13.110912
Ag   25.993958 -14.130204 -23.214821
Zn  -13.046890  10.367292  -2.000490
Xe  -12.942968  -7.019218 -34.587797
Lu   11.179013 -23.182106 -32.814043
Tl   -9.506160 -21.749577  -4.997087
Pt    9.204272  21.174943  24.678095
Dy   -1.195319 -11.838044 -23.820133
Ce   16.464187   9.010980  -7.878478
La  -19.718613  35.052081   0.142797
Er   -8.588631  12.029563  16.916584
Bi   18.089635   7.730287 -19.172380
Ho    9.331173 -32.054475  -5.945435
Ce   -7.717058 -19.275185   9.615268
Tl  -25.032493 -10.061566  24.626962
Be   -9.020241  13.539643  31.512712
Ar  -34.065428  13.910281 -25.638993
Te   23.482793 -19.062784 -13.300731
At    0.919251   2.164401 -25.626779
Xe    1.797304  32.235852   5.934306
Yb  -10.258859  -8.501723  16.944208
Sc  -16.006727  13.509695  37.261168
Er    2.231245  -5.970973   8.909150
Ta   23.766380 -36.887233  -0.949851
Rh   12.571851  14.653619  18.098879
Te  -26.342825  20.608675  29.422349
Sn    8.856728  -8.426591 -22.577918
Si  -32.471053  21.135763   4.861251
Ce  -10.325098   8.755851 -42.377832
Cs  -28.422020 -13.115903  10.449296
P   -11.686878   2.077994  13.046809
Rh    7.396025 -23.938758 -21.217001
Cs  -42.875950  -1.502850   7.872957
Au    1.042319  27.234964  25.770674
Mg  -32.361819  19.888551   7.766760
Tb  -11.661845  41.054697  -1.512229
Ce  -36.486064 -23.099992   3.192207
Zn   16.079791  35.963138   8.875422
S   -33.055008  15.873838  23.173175
N    12.926032 -19.178012 -20.900758
He   14.405358  20.732464   6.452180
Mo   26.917275  23.273827  13.289772
Te  -33.202152 -28.358844   3.672318
Co  -12.809774  -9.531631   2.478976
Mn  -23.135935  14.171831  10.646721
Ge   32.806338 -25.099608   0.117044
Tm  -38.496249  -9.372554  19.428159
In   -8.546487  25.985115 -16.670264
Pm   39.942680 -10.696652 -14.249305
V   -32.389163   2.382282   3.763523
In  -14.830550  27.112670  -5.161807
Mn   -1.916032 -11.298493  24.232776
Cd   16.935427   7.685779 -38.841061
Hf    4.099952 -27.598322  -9.892550
In  -13.996572 -33.907889  17.895023
Cl    8.154072   2.931895   8.235006
Mo  -20.858942 -23.641694 -24.717847
He   -7.936486 -29.301362 -13.673437
Si   -5.508333 -36.966368 -12.977234
Al  -17.220305  30.875864 -21.669805
V    -1.696019  -3.826144  40.391661
Ru   21.690774   4.192387 -24.779359
Ag  -17.311353  12.792509  19.153230
Kr  -20.564389 -28.128572  -0.043802
Nb  -44.176286  -7.903391  -4.396886
La   -2.896289 -33.652515  17.833147
Al   -6.406177 -15.008929  26.720472
Sc   17.771936 -25.943364   4.404780
Re   -0.933455 -28.677800  -0.066397
Ne  -10.496900 -25.975676  -5.291382
Tb   -1.400351   7.895074  24.226619
Cs   15.697206 -27.861671  10.421034
Cd   18.631213  10.790064  -4.200363
Os   20.669223  12.901549  15.773293
Sm  -14.451721 -30.802229 -19.731962
Ge   22.953090  13.700123 -25.456100
Sr   28.048806  29.722456   5.795191
Os    9.859198 -16.434637   6.262486
Pb   -9.533432  -8.890353  10.517483
O    -3.547515  27.399300  -5.821652
Yb  -26.718555   2.445790   0.728003
Cs   43.440068  -2.076292   0.150324
Nb   31.241064  -6.259278  21.162474
Ag   17.207342 -31.706532  11.448852
Rb   -9.736081  -8.430634 -39.653694
Cu  -30.333619   3.719039  33.235527
O   -14.404418 -15.027280  -4.122389
Co   31.665254  18.108369   3.130044
Tl   13.408123  19.228978  11.750598
Zr   27.622084  -9.205617  -1.317806
Fe   -0.294440 -32.566007 -29.618541
Sm    4.496160  28.292268  24.796051
Ti   22.607858  12.349983 -14.930733
P    26.817574 -17.929724 -25.015965
Ca  -19.344930  19.008935   4.996261
Hg  -14.816902  29.962862  12.387179
Cl  -11.103997 -23.227345  24.980351
Pm   -3.428377  19.229357 -17.460485
Li   16.748564  32.863589 -22.559375
Ba   -0.098432  16.937353  25.799270
As   -1.731261  21.739867  -3.193314
Ni   30.848323 -13.996109 -24.389578
Ta   32.205789  -0.923751  29.579684
Ga  -16.126249  -8.458692 -26.725833
Mn   29.499965  16.383503 -12.098294
Cl   -3.058006  32.596918   1.632967
Dy  -10.767327   5.564308   3.802066
S   -12.250259 -12.185053  15.794203
N    29.215340   4.651946  13.031854
Po  -32.427024   7.856297  22.881860
Lu  -33.925733   3.161487  24.158543
Hg  -30.064558 -15.268979 -20.614740
F    13.090368 -20.966457 -11.723569
Ge    9.675853 -12.688533  10.972226
Si   28.329345  21.627790  18.004253
Cu  -22.996430 -21.141344  18.721515
O    -7.270559 -13.082439  40.813089
Ar   -9.627439  17.908115 -14.416195
Sb   -7.983745  -5.132281 -14.004904
C    27.159647 -31.904476   6.365934
B    10.482773 -15.183920 -12.387206
Er   -9.284991 -29.669210 -10.789231
Au    4.131055  15.572244 -36.559753
Hg  -18.671584  28.882643  27.784136
At  -23.165155  11.821751  -6.162087
S    -0.018046 -26.728698 -11.610427
Ti   13.354606  29.660814  18.253336
Ne   22.042240 -27.844882  14.803614
Hf    2.544531  -7.144549 -41.236997
Zn    4.420174  34.955803   6.662060
Ne   21.778605  31.634677 -11.477147
Cd   18.696976 -11.235417 -27.377342
I    15.170841 -10.889887 -29.369527
S   -42.759109  -3.265427   4.872041
Ag   39.297196   8.895433   9.321213
S     4.531178 -27.340702 -23.333300
Zn   18.811193  -7.329347 -19.755040
