4000
Random sphere (Final Radius: 26.73A, MinDist: 0.8A)
Pt    2.523551  -1.031639  21.235092
Ho  -16.135759 -20.500501  -3.509131
Pt  -11.488419  -5.002053   5.975870
Ca   -7.845687 -11.404102   9.285532
P   -13.540415  -1.453905  17.930652
Lu  -13.622720  20.895476  -9.363239
Ru   12.353076  -1.542994  -9.598912
Ce   -2.106065  26.210907   2.598598
Co   -2.222887   5.630961   3.683522
Re    9.020498  -3.012420  -8.876211
Y    -2.677803  -0.091755  20.281846
S     7.391945  -6.799555   2.914661
Mo   -6.812054  -5.617207 -16.964391
H    23.205665  -5.293521  -3.137728
Cd   16.146835 -14.989254 -10.113808
Ba  -16.780794   4.164375 -18.278798
Au    5.254642 -13.600359  18.310762
Tl   14.995973  11.998671 -15.554607
Ne   -4.963060  11.976132 -23.018250
Hg    4.981777   3.658026 -10.998711
Ga   -7.375911   9.806046  19.882082
Cr   -1.325188  19.643370   0.535523
Cd    9.501250  -3.712615  18.380626
As  -11.520115  12.932029   7.231991
In    7.144184  23.517777   1.180817
Au  -18.777650  10.345523   4.083441
H   -12.654915   9.059496   7.527430
Hf   12.988997  11.943394 -18.952643
Rh   23.611119  -5.161118  -5.918693
C     0.227950  14.562008 -20.964476
Br    8.327322  -9.726872 -13.044189
In   14.544370  -6.629396   5.918597
Co   21.411081  -6.844923   3.605738
Zn   -8.946612 -20.675677   2.333158
Ni    8.857886   4.004059  -4.878566
La   14.889323   6.259601 -15.096263
Ce   -7.083891  -2.044441  -5.824733
Ag    1.905081  11.637472  -5.623071
Sc   -5.120899  -9.310133  -9.588906
H     8.222253 -12.406084  -5.638771
In    8.067604  -6.685039   2.314031
Eu   -1.251945  -5.143824   6.637327
Sn  -15.597289  -0.810891  -5.707851
Pd    0.513692  -5.950290  13.929564
Ho    8.344617 -16.755394   4.664747
Be   14.654734   4.286109  17.257835
In   -8.854630 -13.942434  11.662356
Au    1.676648  -1.887107 -11.657772
B     8.000179 -10.479768   7.407994
Nb    3.699986  17.808510 -18.329702
Hf  -20.149544   4.897275  10.831847
Si    0.063951 -15.991069 -20.998650
N    15.960111   1.697296  13.951826
Ni  -14.001148   6.163289 -10.914538
Tb   -9.418315 -23.059528  -8.930878
Zr   10.831051   0.245888  -7.695374
Xe   13.745112 -17.745274  -1.430450
Ta    1.974241   3.520765 -10.753179
At   18.517610 -13.302846   7.882527
Ti  -12.227535  -6.012260 -12.323065
Fe    7.217756  19.862681   5.906892
Pb    3.400497  16.691394  20.096503
B    -4.070009  14.460384 -17.323078
Se    2.601619  -8.253603   3.226202
Sb  -23.038229  -6.536787  10.701671
Lu    1.718438   8.352004   6.005932
Te   13.916560  -7.380742   5.064736
Ar   16.257322  -5.058396  -2.357493
Y   -20.443026 -14.416671  -0.029175
Cu   -7.717264  -0.788723  13.565059
Nd   -3.338948 -11.929190 -16.987265
Sr  -15.586004  -8.643124   6.956309
Zn    2.044902 -18.841606  14.312162
Xe   -2.028321 -14.674609   8.236205
Ba    1.070808  22.562411  12.408557
Be    6.951888   9.671585  10.205131
Dy    9.142776   1.320252  24.974723
Mn   -4.651465 -11.831786  18.871385
At   -3.948331  16.391588   6.914603
Li   -3.216108  21.098313 -14.632081
Ge   -4.755238   0.637865 -15.021499
Ru    2.325212  14.619226  17.291100
Mn   24.396202   7.854859   0.355316
Sn    9.018201   5.792216   6.809922
Er   -8.721400 -23.871246   8.073224
Sb   10.688687 -14.123650 -16.209240
Xe    8.616708  14.145519 -16.101855
Mo  -19.143883   7.879519  -1.927280
Er  -20.168902  -0.529245   4.082201
Mg   19.961073  13.409026  -7.802925
Po   16.316551  -5.517372 -10.229338
Ba  -10.960067 -14.638889  -4.781159
Na  -11.758422   5.564604  -2.964591
Sr  -13.274111   1.935836  10.166881
K    13.263940   8.098674  15.619802
Al   -5.022971  -9.415264   3.964009
As  -10.327846 -15.091651  -0.787779
At   21.154720  13.063038   2.521967
N     6.996972  -9.681443  17.115018
Tl   14.057456   5.012014   4.629525
Te   -5.731980  13.726447  19.228802
Al   -8.459992  11.828207   9.753501
Te   -5.238390   6.750910   6.611595
Sc    8.535571 -11.072237   2.843527
Te   16.305155 -15.228612  -4.182379
Ne   -5.920407   5.074198  20.506534
Kr   20.298413 -10.032079 -13.814779
Pd   -9.003083  -6.652808   0.406933
As    7.192875  16.174485 -16.086475
Ag    6.263813  12.918429   0.108122
Ti   14.571056   0.396232  -3.447237
Cs   -7.609861 -22.679078  -0.441313
V    17.358683 -13.894720   8.786707
Br   -2.649615  24.040174   9.296349
Rb    6.611046   6.118703   2.817150
P     1.497943  11.806157  13.888405
Os   -2.123542   5.182968   6.918596
Sb  -10.409144  -3.207945  -2.920540
Si   10.592431  10.142262  -2.612458
Y   -18.297556  -6.003253  15.171967
Xe    4.709416  25.884174   1.508515
Pt   19.107242 -10.648258   4.952377
Cl    6.555682  16.291578   1.687725
S    -2.855791  13.229674   6.008249
Tl  -20.588926 -14.464845   4.302297
Ar   22.202527  11.882471  -7.728760
In  -18.637799   5.875407  -7.334824
Pb    4.667254  16.086679  18.232807
Lu   -6.509336 -13.144447 -14.240511
Cd    3.014310  11.839860  12.617101
H    -7.779156   7.660017 -23.696579
Tc   -1.688022 -10.176109 -23.146151
Nb   23.825148  -6.770939  -5.453055
Mn   -9.392471  -2.307086  -5.935140
C    -8.684987   5.478477  -9.947125
Cl  -15.082369   6.478582   0.344813
Ru   -7.838065  14.745901  -1.436041
Cr   24.341882   4.263183   5.258833
Fe    6.827023   0.217789 -24.821511
P    -1.042598  -8.257628 -12.883409
Bi   -1.578679  -2.367320  10.377519
Te  -14.768282   6.352699 -13.498087
Tl   -8.970716  15.575209 -10.287611
Si   15.592392   0.519236   0.678556
Dy   14.135208   5.916503 -18.831814
Mg   -9.476326  24.467397   2.319177
B    22.157752   5.020082   1.706040
V     2.022335 -17.581009  12.917650
Pb   10.814814  -5.037445  22.259189
Sr   16.536139   2.480844 -15.101339
Hg    7.361501   2.967861  -1.722055
Cs  -16.576091 -13.295230  -8.794582
P    15.055760 -17.083182   6.507198
Tm   10.639075 -16.028266  11.733876
V    22.332432   2.768174 -12.976515
Tb   17.190310 -15.541282  -6.192060
Zn   18.165577  -2.240903  -8.461342
Au    9.583987 -10.982868  10.082838
Hf   11.436469  -1.024672  16.514751
Pb   -3.603254  -2.566237 -14.907006
Rn   -3.427112  -6.652997  18.633074
Br    1.272646  -2.377050  -8.196872
I    12.538830   0.595342 -17.328972
Pb   -2.977347   2.236545  17.874005
Bi   16.265915 -17.203673  -2.006226
Tl    1.803247  11.814173 -22.124919
Lu   -3.176176   3.000452 -15.860877
Zr  -10.203316   7.367733  -1.977781
Zr  -16.896093 -18.525049  -1.616181
Ho   -3.213481 -24.089638   4.274943
Ga  -14.701290  -1.737956   9.003464
He   -6.381266  21.054167 -14.320561
La    6.066033 -22.525526   9.212196
F    10.071417  14.850000  -7.570579
He   -7.456035   9.122904 -17.303921
Rh   -1.800175 -12.842667  -7.774416
Nb   -9.609333   2.684671 -18.419835
Bi   -2.794789 -12.526629 -22.526595
Ne   16.946121  -6.139448   6.182719
Ca   -5.641628  21.699876   2.323639
Tm   -9.846343  17.599912  14.735793
Sm   14.751249   8.656194  -8.145898
Au    3.050991   0.462443   8.417447
Tb   -5.128184  -2.242895  17.510118
Lu    6.693093  14.490646   6.771837
Tm    7.072251   0.200444  17.145945
Mg    1.384450  21.294074 -12.743706
K    10.538202 -10.091923 -12.641942
Ga  -18.686616 -18.171196  -4.102518
Ta   -1.517679  19.029985  17.094180
Cu   -9.899794   4.155078 -23.926854
Y    -0.648367   8.321503 -14.277372
Yb    3.109556   5.685349 -15.330380
V   -12.775457  -4.288017  11.314273
In    1.146593  -3.894623  11.206935
Ti   13.003963   7.355187   3.147671
Eu    7.548194  11.058377   1.557885
Ba    6.264101  11.934872   6.794705
Eu   10.409181  17.849800  -1.813719
Ho   12.852693  14.458043 -10.785152
Ag   11.691344 -20.768358  -5.356709
Bi   -8.428083 -20.658831  13.736353
Li  -25.910550  -5.975693  -2.579537
Pt  -21.526940  12.415302  -7.880636
Mo  -11.997053  -4.986600  -4.437758
P    11.687482 -13.874861  -8.241605
Mn   -9.886053  12.481911   1.686509
Te   -1.693096   2.961709   2.356647
Ta    2.380590 -11.218905 -17.240078
Bi    4.005869  18.440166 -15.210727
Pd  -16.210633  -5.421264  15.437094
Eu    7.103799  18.222359   6.711752
Hg    3.296219  -4.106337 -21.433752
As  -13.995736 -15.718066   4.921744
Al   13.621083 -14.031716   4.324622
Sm    0.579580  -9.899855 -10.058228
Zr   16.394123  -6.317995   1.771464
Tb    4.829134  15.141560  -8.600225
Hf  -13.480962  -2.226605  -2.967219
Sb   -3.594662   7.192305 -10.078032
N     8.480754   7.487451  20.143177
Zr  -18.673119   5.581441  11.883249
Se    8.238577 -10.268785  17.769085
Mo  -10.533983   0.687438  14.403723
Li   -5.405040  16.538672  -2.737302
Rn   14.954284  16.871952 -13.551511
Hf   14.599381  -4.030935   1.389767
Pb    8.793138   3.790024 -16.394421
S     9.403376  -0.619478   9.512968
Gd    7.801639 -11.846104  -2.195550
K    -7.688854  -5.837772 -13.839184
Cu  -17.508614   2.069738  16.918704
Pr   -1.838292   9.938435  -0.772001
Re   -2.711998   7.850123   1.134528
Ar  -14.154567   4.861787  21.526753
Eu  -15.922471   5.352476  -5.211394
H   -14.372754  -4.797689   5.354066
Be   -9.043094   3.354306   6.260963
Co   -1.880943  11.082334   1.220071
Hf    7.089365  -0.248136  22.561933
Zn   -9.415597   4.432347  -9.175783
In  -23.700774   2.319612  -5.975143
B   -19.574808 -11.860507  -3.717377
Se   -6.392556  -5.926519  -3.243234
Cl    8.287558  12.205931   4.141719
Nb   -6.023861  20.738321 -13.420931
Re   18.773600   1.972088  15.437707
Li    4.864749   2.664396  -3.504279
Tb    1.341585   1.517480  25.848822
Pt   18.136868  -0.458176 -12.507672
Ge    1.588721  14.264900  -8.522447
As  -16.008375  19.233368  -6.258807
Tb  -21.766467   2.955026 -10.641997
Rh  -14.402612  -6.448525   4.832256
Ti    5.430965  18.288585 -17.528635
Ne   -9.926079  17.820604 -16.355904
Se   15.739135  15.718196   9.328621
Rh   -9.722032   6.141749  19.449802
Xe   11.503212 -15.791910 -10.877571
Gd    5.300288  19.045737 -16.968978
Ni   -1.004230   6.113393  12.809892
Yb   17.975823 -14.669901 -11.120194
Tb   17.260526 -15.833840   8.439031
K    -8.831715 -11.054657  -3.368989
Mo    5.976554  -5.150892   8.554468
Sm   16.709526   2.302353  18.675531
Mg  -12.986702   3.533770  22.153882
K   -14.268139  10.922235  17.844541
S     2.493373   6.236606 -15.364418
Ar   -5.664938 -16.416085   0.506923
In    4.196968   5.540528 -19.478029
Ti  -11.926160  15.752634   8.280802
P    -5.579001  16.716948  14.272276
Rh   -6.234805  -3.186514 -23.403512
Ca  -17.545404   0.190466 -18.282388
Co    7.948450  -5.596265 -19.231057
Si   14.528603  -1.696802   8.841027
Pm   20.654551  -4.494681   7.600546
Cs    8.015488  17.006329  -7.824706
Hg    7.226588   1.419884   0.827157
Sb  -21.184473   3.709036  -8.860671
P    16.319654 -11.671643  -3.485764
Mn   -1.125373  18.764294   0.723529
Ta    7.856767 -13.868555   5.095222
Re   22.328914  -1.841632 -13.711952
Fe   14.626759  10.302802  17.474394
Ta   -4.057045  -9.579059  23.704661
Yb   -1.488211 -11.873477  -7.759494
Sc    0.564308   8.107301 -23.224720
Be    4.154367 -21.260429 -15.387040
Ni   -8.205771   2.786839 -22.279481
Hg  -12.420938  13.407271 -14.963926
N    16.917880  -1.700343  15.629167
Tb    2.463234   0.451089   2.518055
Ni   -5.900628   9.949744  -5.155985
H    -0.490905  -2.630022   9.586703
Cl  -19.709241   6.042600   6.924468
Sc    4.988986  14.509344   6.197443
F   -20.187171   0.401639 -12.204405
Pm    5.388235 -25.275874  -0.787677
Pm   20.036514   7.768506  14.704623
Pb   15.028311 -13.083514  14.172526
Na   -4.207443  20.287289  -2.956369
Fe  -18.796118  -7.827224   4.393474
Nd  -19.801526   5.722953  -2.783955
Eu  -22.851800 -11.844327  -4.817742
Zn   16.382198  -6.242122  12.396484
Sr   -9.656642  -3.639386   9.044345
Po    1.702342  18.324087 -13.200400
Ru    3.471083   3.668529 -15.702202
Y     8.390294   9.613843 -10.435894
Ru   -2.860304  21.109632   3.246967
Ge  -16.212372  -6.845410  10.904920
Pm  -12.779149  -0.587645  -5.699337
Ir   -2.798463 -12.821969  16.869911
C     2.292492 -26.209516  -4.151106
Y    11.225088  14.642000   5.861137
Ge   12.716137   1.123901  -9.695403
As  -19.201061  17.037183   1.039310
He   -9.634333  -5.992502  11.471844
Ag   -8.804395  10.776857 -20.222887
Be   -0.358878   5.053451   6.547374
Pt   -2.550584  -7.267313  -4.326324
Pt   -9.025258 -20.863719  -9.211707
Br    7.595234   4.653904  -5.310359
Tm  -15.292426 -18.352674   8.704041
F     1.808682 -15.998598  -2.994924
Ge   -2.407747  16.235148   9.030072
Sn   15.345272 -19.069011  -1.169066
Pt   -7.291120 -12.811026  17.356458
Y    24.130492   3.619908  -3.190709
Ar   -6.735630 -16.144090  16.213118
Gd   13.240891  10.285919   1.781979
Au   -5.433244 -10.111540   1.167457
La    6.053994   9.679378 -20.405165
Ta    0.461072  12.612340   2.393902
W    18.299414  -2.471270  12.794842
Rh  -11.974814   2.612537  -6.403750
Kr   -6.150849  15.023641  10.723891
Bi    3.616936  10.444150  -4.709649
Sr    2.663879  -0.456880 -12.540662
Pd   -2.553638   7.352321  -7.287909
Pd   -0.855199 -14.240943 -20.954689
N     0.210596   1.568311  -7.461587
Po   12.613318  -1.523356 -16.277799
Mo   -7.122774   8.433721   7.706556
Rb  -15.815721  17.351816  -0.914649
Fe    1.745833  -5.686732  21.829915
Ar   -5.557509  12.935353 -22.160675
La   17.693189  -2.941002   2.740144
Os  -25.959794  -6.113838  -1.401341
V     8.179594   4.992466  10.632559
F     5.274401   2.553023  21.903987
H    -0.902690  -9.680637   2.649925
Ar    5.313433   4.767362  -5.727755
Ge   -9.331362   8.112766  -2.820311
Lu    3.939841  16.978615  19.536207
Fe    1.578686  24.982642  -1.247840
Ne  -14.009315  -5.974743  -1.283126
Pb   -4.169122  -0.480420   7.061320
Xe    2.135671  -4.851573   8.184470
Hg  -15.271756  -2.576035 -10.056960
Zn  -11.257779   9.248989 -17.039226
Mo  -15.365348  -5.964654  13.808678
Li   -5.288944 -11.040485   7.593644
Gd   -2.359915  12.120535  -5.652288
Cl   10.183314   9.989239  22.082347
Tm  -15.481797 -11.423926 -10.562285
Kr    4.039458   0.614400 -18.600184
Sr   11.860393   0.747926  17.299296
Y    -2.266079   2.867765  10.471126
N    12.409794  16.393439 -15.122414
H   -15.771653 -21.056883   3.780049
Si   10.277162 -13.686166 -12.583778
Sc   16.259954  -2.070272   0.765381
Er   -7.102306 -16.823726 -16.423797
P    -2.085685  -7.105725   6.063138
At    8.413540 -15.990410 -13.341261
Ne   14.877875   4.610896 -10.203977
Hf    6.295890  14.155194  18.419873
Kr    6.073092  -8.025910  17.006269
N    -8.393332  -4.510239  15.015267
Ce   -6.393184  20.527993  15.139065
Xe    0.917385  -4.774788  -8.335211
Tc   -5.183101  13.763840  14.797643
Sb  -20.815624   6.902970   5.276978
Ge  -12.325639  -4.981542 -13.559460
Fe    0.693363  -6.968576  16.141456
Tm   -5.200650   6.524537  17.916680
Rn   10.286366 -11.077939  -7.741957
Lu   -4.534717  10.300578  10.312913
Kr    0.899545   2.364123 -15.261674
H    13.105100 -12.223651   1.738639
Ti  -14.304017  -2.103659   3.849178
Bi   10.375102   8.875653  20.086884
Rb   -2.949826  -8.707808  -1.654370
Yb   -4.820563  -8.710670  10.308911
Ar  -12.918509  14.186068 -16.064357
S     7.035365  -1.896754  -0.870020
At   19.802211 -14.119025  -9.383222
Er    4.220107   6.314274  22.244047
Xe  -11.859202 -11.949247 -10.677857
Kr  -10.305643 -19.536028 -13.003968
Xe  -23.648629   7.687731  -8.324279
Sr  -23.819906   0.504108   9.998285
Cr   -8.150640  -0.505499  18.125440
Tl   20.720169 -10.622293   4.602253
Tc   16.378663  -9.510741  -5.219298
Ti  -11.213692  -8.439453 -18.804734
B    25.768939  -1.060068   1.917678
Ag  -10.052812   8.412796   7.798946
Hg  -11.389379  -0.604675  10.271219
As    4.383122   2.443358  23.465712
He   16.509839   2.340851   0.520713
C   -19.930812 -12.639812   7.632239
Ge   22.992206  -1.126720   7.057792
O    -2.715161  19.864589  -2.192614
Tb    7.505203 -10.109357   0.726991
Zn   -1.019559  16.759731 -15.678803
Al  -12.026961   9.684788 -13.929482
Er  -14.230311  -9.668180 -11.082144
Tc   21.429092   5.796897   2.214211
Na   23.021994  -7.427838   9.106431
Yb  -24.995949   3.781938  -1.712509
Y    13.916082  17.157819 -11.002415
Cd    8.356876   0.803996  11.298356
Bi   -3.961859 -14.812009   9.530195
S    -4.857720  -8.336685   2.157690
Ho    6.289689  17.971263   3.984194
Ge  -12.293103  -0.431004 -11.194971
S   -17.141963  16.112647 -10.422757
Os    5.478278 -16.483817  -2.060431
Sb    7.063002 -12.542553  -9.002380
Cu   12.964925  12.957337   2.439950
Pb   11.721948  17.519630  -6.226018
Rh    8.472484 -22.327614  -1.165737
Ir  -17.196858  15.851898  -2.906672
La    5.210349 -16.746999  10.039144
Sc   -6.257913  -9.382915  -6.998171
N    -5.059617 -21.343243   6.044988
Ir   21.488478  14.051543  -6.131623
Ho    4.816549  -9.267671 -16.615918
He  -25.714428  -0.404617  -4.585758
Ne   13.727351  -6.792411  21.173096
Nb   12.360893 -21.941939  -4.332204
C    -7.035620  13.821994  -3.847019
Mn   -6.678846 -12.726581  -3.065435
Tc    0.124791   2.918312 -11.646912
Cr    1.319888 -13.383333   6.332843
Ca   -1.907256   2.321417  24.910692
Pd   -4.080849 -13.470277   7.428203
Ho   -3.709578   1.472131 -14.026833
Cu  -17.072400  10.660241  -3.659703
He    8.183605   6.859507  -4.533005
Er    1.862445  10.531920  -2.398223
W     9.894837 -18.170442   6.230546
Ar   -9.627195 -13.028946  11.184067
Rh   -1.719542 -13.661346 -20.588793
S    -5.451653   3.396968 -18.892929
Nd   23.326814   4.157228  -0.423896
Al   -9.459821   3.758014  22.985330
Li   -6.668718  -8.625059  -0.864490
Gd   21.780808  -0.330277  -3.682545
Ti   -2.175773   9.291462  15.869596
Nb  -15.446088   7.624022  -1.487303
Mo  -13.129609   6.437381  10.736993
Ga  -20.037717   8.092988  -9.397149
Be    5.882545  -8.026566   4.756242
Pd   15.080227  -2.619145  13.740462
Re    5.756380   5.599469  -9.521773
Tm  -16.107107   0.512197 -15.151350
Be  -14.861006 -12.251777  -5.153613
Zr   14.605388  -5.093159  19.052481
Fe   -4.076970   2.555407  14.857423
O    11.408324  -0.647760   3.919578
Ce   -7.738121 -13.644225  12.142876
Ne   17.780230   5.947547  18.818890
Mn    0.489464  17.047686   8.964088
Pd   16.008433   2.993198  17.138421
Ni    4.317887   6.811874  -6.307296
Pr   -7.853458  13.877376   8.372022
In    2.810496  -5.315028 -13.058510
Be    8.470004  23.186070   6.909459
S     6.498453   6.522215  23.565392
Ru    1.001425   6.194522   7.726859
Pr   16.139967   4.355884 -14.970051
Se   -5.107773  -1.492381  13.164756
Po    1.879235  -2.296643 -26.526317
Ir   -7.614599  16.211968  11.987887
Ne   -4.384478  -8.865133  17.880820
Br   21.888089  -5.637001  12.798766
Fe   -9.482623  10.236351  22.575459
Sr    1.170636 -11.624451 -15.172868
Hf   14.759132  14.782508 -13.104927
Y    -7.419655 -20.073470  -6.426480
Pm   -8.580353 -10.499292 -19.195135
Ge    2.515680  11.116606   5.429717
Fe    3.839807 -20.986752 -16.090481
Re  -16.135565  -1.760247 -20.068800
At  -15.717450 -13.279477  -0.075921
Ar   19.068592  -5.083272  -0.893815
Be    1.977480  -3.579086  11.043223
Ho   14.035414   2.203891 -16.408279
Ta  -12.455300  12.832802  -2.551887
Sm   15.538345   1.073808 -11.478265
Sn   -6.830946   8.732099  17.361800
Zr    9.860232   0.560210  10.081835
Kr   -6.662562  -1.412481 -18.026841
Lu    5.034839  23.424281  -3.559091
Sm  -13.214108  18.540463  12.379635
Kr   -1.055190  -0.436132  24.793395
Zn  -10.734155  17.090807  17.342428
La  -10.846199 -18.580279   3.431577
At   20.173022 -14.740036  -7.642029
K     2.375309  -7.739245  20.565995
Os  -16.192171   7.962902 -16.819123
Ni    4.703390  18.579700  11.204709
Ag   -2.145378 -23.014940  10.194608
Ba  -17.196310  -7.424476   2.150735
Lu   18.159724   3.110833   8.045641
P     3.731928  14.240137   6.859964
Na   -6.171427   9.784905 -22.565829
Tb    9.602129  -2.616316  14.002475
Sr    8.200368  -8.254972  12.642886
Br  -12.094943 -16.369718  -7.115190
La    5.036115 -17.914498 -18.263240
La  -20.859655  -5.127814 -11.105085
Cu   -8.889562 -12.058078   4.703578
Ho   -6.237433 -14.007025  -0.903026
Ga    7.760366   5.620068 -22.985593
Co   18.402414  -1.731880   2.766338
Ga    2.059221   5.936796  12.850373
O     6.882690  15.036511 -20.951750
Ir    9.589714  -0.707168  -9.735536
Pm   -7.188527  -3.420990 -24.358167
Si    6.699347 -10.192098  12.817945
Kr  -13.620187  15.637903 -10.401704
Cd    3.464599  -7.559921 -15.431098
I    18.570423  -5.116688   7.201596
Os   13.151803 -15.382496   4.077682
Xe  -12.129333 -16.142230  -4.053186
Tl   -2.437284 -16.756169 -15.923676
Au  -11.070416   3.370470 -23.799808
Zn    2.090778  11.736660 -14.535656
Tm    1.223180  22.168011  -0.888586
V   -11.389026   4.248290 -14.414706
Yb  -16.296268  -5.729402   4.349239
Li  -21.578463   1.141464   5.460273
Cs  -13.472682  -2.662301 -19.397571
Mo   14.795200  12.776738 -17.300963
Rb   -1.898911  -3.969559   8.955245
Y     3.688227  -0.252224  25.880158
Be   18.063941   8.386590  -7.793779
Y    -6.149276 -12.505879 -22.311271
C    -1.689635 -15.791838  13.898065
Nd  -10.167865  -2.564845  -6.140216
Ir   -2.629312   8.310469   6.196162
Gd   18.217976 -17.302258  -6.378762
Sr    7.608165   6.089609  -6.446646
B   -19.533857   8.928937 -12.785056
C     6.565886   1.623889  19.676629
In    6.225106  -4.227509 -11.780415
F    -0.847045  -8.301727  25.147947
Be   22.207797 -10.799550  -1.520803
Ti   12.248697   2.475187 -11.575023
H    -1.571021 -15.530719   6.162397
Sb  -17.747035  15.097427  -7.253448
Pd   -1.344761 -14.756810   0.329413
Ca    3.684376  20.660208 -16.473694
Sr  -10.371038  11.805846 -15.687158
He  -13.734208  -7.155855   6.195145
O     5.606529 -17.349364  15.360223
Mo    4.572805  -0.613879  -1.123588
Be    5.138860   4.010971   2.794150
Rh  -13.639187  13.389934  15.086215
Sr   -8.882889 -10.372304  12.693015
Os    4.633616  19.021121 -14.292865
Hg  -18.188844  -7.808165  -7.644614
Zr  -18.733627  -5.227744  14.971590
V    10.870891 -17.023208  13.179430
Sr   -3.170899  11.909842  -3.367283
Pm   12.241592   0.834751  13.211094
Hf    3.677520  13.013226   6.454304
K   -22.768907  -3.952118  -6.486818
Os    1.149928  -2.405661 -16.489888
V     3.667096  11.811661  20.108446
Ni  -18.388757  -0.337175  16.859238
Fe  -10.914298  -9.636668   8.520183
Cl    9.921112  21.451701  -0.745890
Eu   20.265079  -8.551380  -6.862280
Yb   -0.322409 -12.321014  22.981044
Zn   13.927078  18.171982 -10.759493
Pd   -8.105439   0.340205  -4.162128
Pb    3.635897  11.381812  13.278687
Eu   -3.609491  10.952972   5.642463
Mo   19.206108   1.342382 -15.767506
Li   11.360073   0.095513  10.969658
Cu   12.651884 -12.738330  12.106262
Br   17.780784   7.983068  13.793085
Sc   -0.054686   8.060968 -24.164071
Sr  -11.819960  12.042912   6.777270
Rh   20.611163  -0.572685  13.147558
Cs   18.814611  12.827054  -9.683293
Ti   -8.939290  -0.002799  -1.256242
Ne  -11.064510 -15.772014  -4.601536
Ca    9.040177 -16.521820  18.714368
Ho   -2.230708  -5.288909   5.556119
Cl  -17.901627   8.744778 -16.740923
Tl    8.097024  10.571301   8.313268
Co   21.759273  -5.988083  -5.872570
Ru    0.080555 -24.687072   3.555724
Er   10.560686  -1.872433 -23.725605
K   -13.632110  -4.584948 -18.910871
Rb    7.713021  -6.748507   4.522322
Xe    0.870883 -14.358007   9.670054
Ni    1.905693  22.998396  10.894464
Sn    0.731524  12.513860  21.108231
Cu   -7.222694  -9.607572  -4.914904
Ti  -15.409219 -13.213350   1.411875
Ga   -4.719105  16.852007 -12.714025
Pm    0.710889   1.283717  -9.854645
H    24.293547  -8.586917   0.901518
Li   14.267565  -3.711982 -15.010942
F    21.002616  -1.119895   0.194567
Tl   -4.218532  -2.577278  16.980652
Rb    1.877608   5.564377   4.060141
Ir    4.145429 -14.914118 -15.414306
Bi   -2.147669  13.203556 -15.927420
Ru   -3.032360  22.281514  11.543103
Al  -11.968614  -2.172001  19.772177
Na  -11.634706   8.512210   1.123616
Zn  -17.051769   9.385015  -2.131561
Co    2.285731 -18.196749   1.058439
At  -15.049718 -16.088487   4.866542
Pb  -18.382118  -3.445127  16.481360
Re   -3.824178 -20.510396  -6.818819
Ce    8.954461   7.438475  13.703255
Er   21.567075   3.732277   0.535987
Ta  -20.356609   1.510090 -16.300427
Yb    2.561654   4.897627   2.813904
Te   16.424115   1.189201 -11.385063
Sm    3.623660  18.271760  17.872759
Gd   10.802201   9.462771   9.331407
Si   -2.905282  -3.550504  19.134167
Xe    8.153513   0.591253   2.800275
Tc   -1.742392  23.371483  -3.413462
V     7.127947   1.290368  24.899655
Cr   14.279732 -19.480832   4.733975
Na   -7.410220   5.467565 -14.692336
N   -10.040756  22.394015   7.518964
Al   -0.118121  18.620982   3.806379
Sc   11.356816   1.668718  -9.425992
He   -0.664461  -1.698902 -12.692483
Gd    4.241367 -13.097673   5.286308
Sm    1.863846 -24.334737   9.489780
Sc    6.648476  12.351600  18.730811
Xe  -22.685018  -4.047166 -10.585581
Pt  -12.805062  19.077729   7.157151
V     0.561425  19.504328  -2.195818
He    6.430360   1.876573  18.479685
Na   15.940161  14.037418  -7.560864
Zn   10.374539  -2.835633   0.588224
Hg   12.058973  -7.379645  17.314741
As    8.657196  20.150750  -7.583676
H    20.042470   1.278301  -8.780446
I    -3.254123   3.226671 -12.178189
Os   10.790631   2.687315 -14.236616
Ir    3.600961  15.412982  10.408475
Mn  -12.842408   9.305369 -18.361141
Y   -15.449191 -16.898210   9.898613
Ge  -14.103056   7.539140 -12.430812
Cr   10.700752 -22.691534   5.154570
V    -1.134000  16.180766   6.410734
Xe    0.775055  -1.930901  15.922459
Cu  -12.801385  14.409042 -14.273560
Ar  -14.766802  -3.536165  11.490982
Sc    0.311231  13.039614 -22.300460
Cu  -14.371703  -8.775318   0.289895
Cr   -6.093218  17.375770  -4.459796
H    -4.660812   6.911540  20.378378
Fe   21.240842   9.597347 -11.072023
Cd   16.108156  12.494280  -8.108292
Ga   13.216389 -16.983816   6.219749
Os  -10.251251  12.587385  -1.252071
Nb  -16.216559   3.617465  -3.452198
Tb    2.568925   8.108681  12.318206
Tc   14.750933  16.495099  -0.304447
Pb   -2.318952  25.182375   1.658689
Tc   -7.130058  -0.563702  18.100444
Ru  -14.544473   4.760745  -4.763939
Na    0.003801  18.053585 -14.259023
As  -21.295832  -6.373939  -4.699275
Mg   -6.859421 -21.245411 -10.514627
Eu   -1.758278  -0.152580 -19.787473
Pr  -23.791601   2.631272  11.457421
Ge   -8.078919  -1.782199 -17.335143
N   -21.845628  -2.525818  14.554936
Nd   10.680876  -8.590983 -13.280468
Si   -1.490918  -6.076804 -24.505828
Ca  -20.164307  -7.987599  13.147804
Se   17.830703  17.061385  -0.573663
P    -1.406125  23.585137  -2.523578
Sm    6.651132  -2.615936  -0.280603
Ga   -9.847638   4.804101  12.049014
W   -11.699952  10.234868   3.015089
Tb  -17.453539 -16.689559   1.640601
Gd    9.369311  21.427769  -5.357076
Sb   -0.592647 -15.545147   9.232459
Ni   -4.653851  12.644152  -6.057974
Cr    1.470055  -7.944188   4.417311
Rn    8.110290  25.346657  -0.207713
Rn  -24.553903   3.423147   8.711808
Ni    4.070718 -12.015475 -14.182170
Mg   24.387824 -10.400513   2.652413
Zn   16.774536  14.116724   5.399385
Zn    2.618567  14.670671  -1.994230
W     8.314849   5.795603 -14.332959
Sb   -6.045586 -17.165274 -10.633256
Po    8.925779   9.335029 -17.034464
Pd   11.662598  -8.502819  10.350656
Pr  -10.092708  -9.496195  -7.285241
Tc   17.063849  -3.731640   2.138529
Si   10.615722   0.813582 -20.305340
Ce    9.803469  -0.061238   0.033315
Hf    8.139366   7.271457 -17.078578
Nb    8.383765   4.762835  11.476620
I   -12.753227 -15.925837   3.288985
Zn   -5.321757 -14.519954   8.993815
Pd  -11.115019 -16.728574 -10.820382
S    -5.690487  20.790171  14.677180
Lu   -1.520119  -3.446370  12.787463
Sr    9.632690   8.697822 -14.519544
Be  -23.393973  -5.404117  -9.270154
Zr  -10.262753  14.124157  11.763290
Dy   -3.626969 -12.793624  22.426625
Te    2.842115 -20.507145  10.073960
Sr   18.342375  -5.115300   3.664390
Mg  -11.708891  -9.098392  13.799923
Tc   13.711913   7.671338 -15.424149
Ce   10.499452 -11.540900   8.750677
Nd  -14.200306   7.693511  19.950284
Nb  -11.624980   0.866171  -9.662525
Si  -16.395501  17.731548   1.436675
Hg   15.292553  10.938348 -14.678342
Ca    9.383770   7.537543   7.105433
Te   -8.119010  19.101627   3.341946
Br   24.487758  -5.622641  -5.663671
Bi    5.042299 -18.970233   4.662656
Li    2.119531  -5.505344  20.168168
Bi  -10.103860   9.918317  -1.679046
Rb   16.754876   6.899256  -6.123952
Ho  -12.346242  16.944659 -11.512862
Gd   14.090785  10.462368  18.530972
Hf   -4.925259 -13.054722 -16.630755
Hf   15.922537  -7.416895  11.845479
Br   -7.948704   9.942599  11.106244
Cr    6.141155  -4.553748 -10.497513
Fe  -12.734991  16.797229   0.927082
Hf   -6.552643  11.738882  21.970928
K     7.298659   8.382353  -9.246006
Sm   -9.008913  -2.127506   7.220514
Hf   21.005342  16.107581  -3.602891
Tc    5.101565  18.755221  18.096207
Au   16.867625  -6.490317  -6.441650
C     8.386588  16.743887  11.994252
Ce   -7.023429  -3.101029 -14.960712
Ti   -8.286151  -1.206541  -2.414620
Pm   10.612871  18.604629  -2.740666
Ar    1.844367  -6.923559  -0.528072
V    10.999076  12.756552  -0.022538
Hf    9.454821  -3.630541   1.664363
H    -2.185107 -18.112264  10.228827
Ta    0.140164   9.747277 -13.313208
Pb   -0.168598  -4.606068 -18.975673
Nd   -9.324384  22.084076  10.139935
Eu   -0.794839   7.623297  -8.033040
Pt   -1.880957  13.922041  -6.009187
Ni    0.361030  19.834634  -9.439466
Ag    6.247506   0.102138  23.961548
Li    0.606199   1.488924  21.900174
Mo    7.576754  13.019306 -21.511829
Hg   -3.250661  21.381672   6.923505
Bi   -8.809755   5.110613  -8.113367
Rh   -6.894487   1.738482  11.009955
Ga    8.894868 -21.019490  -9.939875
Rh   -5.290707 -18.290018   6.180421
K    -3.750101  -1.934816  19.393357
Ne  -11.400633   0.549390  -1.695435
Ag   12.835325  -4.595376 -15.202284
Cr   -4.835254 -19.549609  -2.129180
Ni   -3.660098   4.855781 -10.204035
Rh   25.658947   2.902383  -4.265369
Ce   -0.752272   4.300307 -17.007106
B    -5.227178  -7.100262 -17.963225
Tl   24.532107   0.540927 -10.338959
Ta   13.982668  -0.402611  15.877104
Mn  -13.033587  -0.107529  18.377201
Tm   15.133990 -13.952204  11.997718
Xe    9.014647   1.244138   9.859579
Mn   13.312593  13.784131  15.507583
Sn   -4.525036  -7.955356 -18.351132
C    -6.926197   1.218480  -8.642512
Po    2.447739   3.931137  10.756974
Zn   -0.010978  23.228851   1.274916
La   25.202473   3.938600   6.277790
Ir   -7.616612  -4.037834 -24.766596
Bi   23.335319   4.753655  10.672727
V    19.922524   0.147095   0.805369
Mn  -12.980977  -1.468906  22.000622
Zr   -3.969090 -14.252836 -10.463998
Si   12.687723   4.167193   9.264977
Po  -10.997083 -17.556746  -3.759004
Nb    5.913157   5.411668  21.982700
Hf   -2.196008   4.881004  -9.624547
Cs   -7.366224  18.760676 -15.094622
Ir   -2.033367  11.969847  14.581690
Tb   13.931244   9.274869 -15.854861
Sn    6.107504   7.902702  -8.465374
Cs   24.502560   3.953581  -9.576256
Tm  -12.481090  -2.210849 -17.807526
In    5.902752 -22.624794  -5.346901
As   23.499730  -3.380023  -0.015891
Ho  -11.274739  22.732732  -3.294725
La  -10.049311  -0.124884  13.344519
Tb    7.606825  10.306830  -1.439767
Se    3.846453  23.247654   8.600849
Cr   22.581231   9.950749   9.171029
Pd  -15.306194 -14.125806   8.749761
K    21.149341   2.504793 -12.717347
B    -6.744486 -22.428550   3.411512
Au  -11.305230  22.552332  -0.120230
Tc   18.208325  16.811731  -5.034452
Zn  -13.905747   4.052042  -9.981609
Re    8.003351   8.635750   4.620152
Mg   11.942423 -11.771083  18.846508
Yb   10.276764  -2.978894 -21.479747
Mn  -16.257559   8.292077 -18.643917
Tb  -17.164429  10.472926  11.512842
Au  -19.341988   6.187399  12.018368
Ti   14.461755 -13.266023  -2.404995
Si   -3.516105  -8.685195  -9.608668
Au   -6.213445  13.102541  -8.004432
Ar   16.468787   6.223880  10.978620
Tm   16.583321   5.249883  -3.137408
O   -14.774404  -0.232315  10.240112
Re    2.915156  -6.036166  19.355525
Rb   10.364809   7.627330 -16.661370
Rb   -0.227090  -5.334903 -20.047338
Zn    7.414631  -3.915845  -9.337506
Cd   17.712908  -6.754523  11.418264
Se   -3.844336  -3.984201  -1.018396
Tm   15.755443 -12.133715  -0.314443
I     5.780866  24.339679  -7.265911
Sb    1.458097  16.831412  12.899788
Fe   23.405392  11.226618   5.652992
Nb    7.891837 -10.788487  18.369382
Ne    5.712869   6.926065 -12.571167
Sc  -15.360012  -7.575097   5.931784
Rh  -12.015094  18.916830  -4.327752
Li  -13.246278 -11.218651  -6.619218
Be    0.154270  -3.859573 -13.913662
Al   17.868607   2.826342  -1.794677
Eu    1.018892  15.402539  10.104190
Pd   -9.989521 -10.453857  20.067065
Fe   18.790338  12.427193  10.839894
I   -24.344020  -0.607555   9.468872
C   -14.655034 -16.127920  14.190252
F   -10.935490 -23.472380   1.303888
Gd   -0.916606   1.338337 -15.811328
Pd  -18.367815 -12.791867   0.597449
Ce  -23.855542   3.059779   0.686571
W    -2.177348   1.285940   0.239330
Al    3.082549   3.611295   9.912431
Ce  -24.741348  -0.384721  -3.947936
Cd    2.432294   3.846117 -25.107003
Rb   10.350436  17.491683   5.539624
Mo    4.741958   3.194184 -11.661476
As  -17.069768 -11.996543   6.764333
Li    2.018305  16.685319 -19.584285
Rb   12.782359 -13.061245   4.242127
Ar  -13.748087   0.629704   9.926368
Ni  -20.111386  -0.695277  16.259517
Zn    7.016028  12.929316  -7.011648
I    -2.552361  11.121766  -2.813470
Er   17.344713  16.321901   0.852042
Rb   -4.680687   0.896971  -9.288644
Ba   -2.438278 -23.225099  -5.903783
Zr   17.714978  -2.772931  -2.831685
B    14.882069  -0.835603  15.857841
B    19.922560  12.945209   8.156363
O    10.999529 -17.462224  -0.135315
Sm  -16.730215   7.869826  10.972593
Lu   18.452040   3.784931  13.134866
Cr  -20.226192   8.162166 -14.912702
Ho   -9.805278   3.823557  23.747474
Rh  -10.105721   6.718722  12.660459
Nd   -1.542397  20.573571 -15.787217
Cl   22.062423   4.926555 -11.340736
Sb  -11.207604  -7.168439  -4.786941
Cd    7.118711  18.571147  17.239479
Au  -20.374661   2.288908  -3.463078
Pb   -8.344988  14.486025 -15.421102
Xe    7.513978  -8.301408  19.887418
Kr    1.345917  16.696968  13.737696
Ag    8.893852 -14.981381 -12.291750
Kr    5.889224  -1.599546 -25.390963
Rh   24.346320   1.949749  -8.192997
C   -14.254817 -11.184483  -2.747009
Ge   -7.087390  10.665551  13.991435
Er   -0.629945  -3.649383  23.082661
Xe   10.392509   0.976098   2.399796
C    -0.146688 -24.936446   0.674880
V   -13.572713   4.357714   8.614299
V    -2.693651   5.465927  -5.605955
Ru   20.672766   2.905892  -3.863458
Tl  -15.547174  11.116087  13.786060
Nb   17.079803  11.447564  15.697420
Eu   -9.766010   9.146159 -17.595803
Br   11.525922   9.955783  20.918068
Pd   -1.790794  19.219265   8.774365
Lu   -3.609261   2.789200  -4.253330
Ne    4.823240   7.355517  -7.650220
Os   -0.713355   5.714180 -18.893959
Tm  -15.824415   6.757110   0.609027
Ca    8.503942 -11.570150 -22.181586
F    21.223793   3.321751  -1.613548
B     8.396564 -23.563452  -6.356466
Ni    4.797396   5.337439  -6.930160
Li   18.405768 -13.805844  -5.833351
K    10.936736  16.694058  -9.587818
Fe   -0.692942  -9.554808  10.242986
V     5.117879 -10.311212 -15.330721
K    10.316066  19.306788   5.241024
Cs   -5.723189  -9.263853  13.004852
Zn   -3.200951  -7.848261  15.807550
Li   -2.510515 -11.830647  17.958124
W   -12.518670   5.578704  15.995648
Co   -3.020935  14.348459 -16.063056
Mg    8.242833  23.267267  -7.849127
In  -14.124542   9.274306   1.613996
Ga   11.230089   1.364894   5.435758
Br  -10.044058   0.729442 -15.673222
Ru  -21.759444  -6.817844   0.976504
Mn  -11.479686  -4.087906  23.459752
Cr    9.785854   8.146671   8.880364
Ru    0.331752  -3.994980 -10.064811
C   -12.616552  12.300161 -12.928706
Ar    3.020294   5.935008  19.424624
Ge    2.739907  -6.682893   3.088163
Hf   13.537939  21.134281   6.697552
Pd   -7.325801   1.496798   1.590176
Cl   -7.856924  -1.034167 -22.169388
Cd    0.713717 -20.676095  -7.753652
F    -7.806881   4.786338 -17.538443
Cs   14.772478  -5.402173 -16.933216
Ne   -3.315407   3.155285  23.487242
Au   11.599620 -14.840765   9.134456
Ag  -19.495445   6.969889  14.311966
Ce   -2.012720   0.344842  10.121715
Sn   -1.908189  -0.101012   3.385082
Br    0.071103  14.370771  -0.477241
Cl   11.663448  23.134805   1.081881
Sn  -12.063889   0.308609   5.622268
Ni   15.597769  -3.840524 -19.137965
Na  -14.450407   6.664470 -18.210030
Tb    6.042360  -9.324796 -16.571570
Re  -11.305735  -4.053975  17.266615
La  -14.567840 -12.953157   4.193628
O    18.744759  13.271217   8.017086
Ar   21.531966   6.743616  -7.157252
Po    0.686260 -17.771543   7.393625
Pd    4.958339  -4.357843  18.022217
Ba   15.177267  -6.643947   8.799614
K   -13.074108  -0.204333  21.080618
Cr    2.179752  17.449087   3.140338
Sb   -5.419800  12.284894  20.969429
Lu   19.904943   3.099137 -14.365656
Co   -1.982999 -17.545799 -14.221208
H     9.423554  19.842377 -13.419136
Br   -8.798219  17.127021  -1.068376
Tm   -8.276341  10.944065  10.145683
Co   -7.792782   7.085262  -7.007268
Pb   21.913980  -1.290344   5.576944
Tb  -15.572029  18.132559   8.004025
Au    3.096727  11.812124 -11.651224
Ne    0.847621  25.337706  -3.164435
Er   -1.180031 -19.771130 -15.225527
Nd   12.834634  -3.067119 -12.206161
W   -11.847075  -8.809329  -6.124059
Cs    0.605312  22.864618  -5.531283
Sc  -10.307946   0.209343  -4.366530
In  -13.628965   5.051134 -13.732378
In    7.657305  20.550056   0.726031
Si  -10.187113 -19.522589  -7.170874
S   -10.614205   8.354433  -9.420846
Ta    3.326801   8.667600   8.877505
Y   -23.414488   4.131342  -5.928349
Gd  -13.097284 -17.100831   0.382167
Br   -7.566285 -20.325055   3.365581
Os   15.835829   0.513894  21.155728
P    18.604358   4.868004   4.466406
W    -9.349627  18.791675 -13.821846
Ne   -2.799052  12.472063   7.644373
Cl    2.500071  -2.104496  -6.134061
Ti   11.673866  -4.396953   2.300631
Li  -10.321046  12.108063   4.344473
B   -16.882179 -16.310334  -0.302086
Cr   -0.232261  -4.513440  -1.698650
Ho   -9.655217  -2.179150 -19.539918
Er    2.331118  -9.701019  21.226678
B    -6.414243   3.363160  -7.065062
Na    6.331355  -6.752129  13.977192
Tm    1.248538   5.888321  -0.079412
Ba   -5.380676 -10.045774 -12.008965
As   -0.190783  16.617119   8.248476
Gd  -12.296849   4.682434  20.587292
Zn   -2.639478  -2.753278   4.278850
F     3.859069   5.245766 -22.114750
Tb  -13.868328 -13.479360  13.506240
Gd  -14.347101   8.935711   8.591637
Ta  -12.110068  -3.128510   9.668454
As    9.583104  13.112727 -16.133055
Pm    0.839259  -7.603507  12.303227
O    14.819114  12.196647  -8.659436
Lu    7.663030  11.627176  -5.745913
F     8.642070   0.174678  18.730348
Li  -11.016167 -10.252746 -17.875619
Cr    8.551718   8.397740 -18.459163
Br   14.458641   8.834923  -6.536051
Li  -18.156095   7.480854 -15.867508
Gd  -15.723379  19.024371  -8.630481
Fe  -10.604738  -6.095729   5.285746
Kr   -0.291581  -3.275458  -4.085250
Cu    9.555541   2.949106 -15.227980
N   -11.199345 -23.752204  -3.334938
Ge    3.397628  10.210010  20.575672
Ba  -11.051895  22.356997   4.723716
Bi    5.793921  22.335630   7.273593
Eu    0.015272  16.393315  17.356941
Dy    9.444549  13.426103  -8.095128
Ar   16.002289  -1.564008  -4.547158
Tm   -1.323945 -18.222691 -15.857939
Po    9.687936  16.102549   9.050298
Ti   -4.171892   2.726369   8.081509
Pb  -10.111334  20.784725  11.906593
Tc    3.902970  16.866757   3.744910
Nb   -0.738804  -6.936520 -12.201039
W     6.996836  16.569507  14.331934
Au  -10.795123   1.277891  -9.586539
Y   -11.611664 -21.941282   6.550648
Ge    7.791039 -14.634936 -17.846758
Ba  -10.510521   1.298938 -12.051715
Ni  -15.701778   8.101529   4.366904
Ga   -7.193616  -0.810885  11.046034
O    11.501416   1.516113 -18.784781
V    -5.688404  17.769536   4.634241
Ti    3.138567  -0.007197  13.341756
K   -20.682915  -0.299348  -9.779128
Ne  -23.191446   3.412487   2.926234
Li   -4.523514   3.955788  -2.528315
I     3.823918   4.985584  10.334007
Ne   12.962139  11.891736   1.612299
Pr  -12.993075   4.189427  -7.729943
Pr   -5.033198   9.387996 -21.335489
Ta  -13.570421   0.240740 -14.941860
Be   14.596119 -13.646473   6.229215
Tb   -1.056766 -19.387026  -2.442411
Ce    8.784692  -9.950488  16.971332
Mn   -6.149575 -12.940677 -13.142473
W    -3.177251  17.798650   5.482962
In    6.578587  -3.306349 -11.670868
Y   -10.909240   9.893146   2.167871
Mn   12.858105 -16.582217  -9.621839
Mn    6.568827  -8.761099  16.930941
Dy   -6.611783 -14.641139  20.042863
At   -8.581315  -8.578021   4.687180
Hg   -7.306530 -14.782982  17.275640
Mo   -2.732097 -13.277358  15.308384
Sc   -2.581429  16.776929 -16.220321
Ni   11.582325  -9.432819 -19.701288
Nb   -6.991966 -15.013943  -1.613061
Co   -1.624165  -3.812424  -8.011099
Ni  -12.382662 -16.630797   9.590510
Ti  -12.875183  -0.130525 -17.166710
Sb  -15.727864  -8.340961 -11.697043
V     3.695643 -17.635177  18.519004
S     8.379896 -12.375721  18.046584
Re   -7.622117  -8.513743  21.384764
Cl   12.367966  13.739384  -4.029345
Pd    4.658646  -7.388514   1.779586
Ca    6.197708  13.961569  -0.858259
Bi  -19.077835  14.332304  -9.855473
Cl    9.960331  15.007218   8.331144
Sm    0.856027  22.723293  -9.821514
Rn    2.341971 -20.253593  11.686433
Dy   16.648409   4.869380 -11.422928
Y    17.317136   8.933327  -8.979763
Co   -8.850943   7.253409 -18.286964
B    -1.357563 -17.802158  -7.068841
Tc  -14.189943  -5.235314  10.034629
Sc    3.993401   5.935791   8.430772
Zn    6.482734 -10.924846  17.725977
P    14.476398 -10.164444  -1.746160
Na  -12.188607   1.671569  14.322974
S   -18.966689   0.590446  -5.138959
Zn   -7.596336  10.371462  15.410700
B    -3.697353   1.982913 -18.341468
Ge    7.111554 -21.087717 -10.785420
N   -13.849068  16.948314  -6.065968
Ar   -3.648828  -6.633482 -24.596353
Ir    1.254918   3.527721 -13.125849
Ta   -8.859844   9.372181   0.719808
Sc  -13.911996  16.401259  -1.383844
Mg    0.533368  14.670941  10.024173
Ca    9.047217   9.840976   6.001563
N   -16.131763  -0.296049  -3.273553
Br    1.429132 -10.803602  17.420690
La   -6.553051 -19.220211 -14.395062
Hf   13.206485 -20.233122   3.929487
Pt  -16.683589 -14.364652 -13.005032
Xe   11.515204   4.077613 -13.882093
Tm    5.848584  12.537082 -21.510573
Be    7.600279  18.417631  -6.642831
Y   -11.421691 -11.900813  -4.234580
Na   19.378454   3.084402  -4.782861
S     4.665732   9.537513 -12.241263
Ho   19.124231   8.066913  10.356686
Xe    6.586154 -15.868482 -12.658497
H   -25.270667  -6.405207   1.669912
H    -2.013971  -5.140001 -22.116151
Sm  -11.694085 -15.182859   7.750841
Sm   15.272100   1.618347 -21.619291
Pm   -4.527284  10.463231  18.540154
Pr   -4.374987 -10.349926  22.717530
I    -4.105951  19.341034  15.339685
Mn    7.793276 -11.989677  19.149621
P   -23.551488  -4.156376  -7.568362
Yb    4.510243  -3.364991  -8.823504
Ar    3.617731   6.138700  -7.854311
O   -22.020880   5.313544   6.940147
Ne   14.046189  18.795581   5.598532
W    -1.553926 -11.255663  -8.796394
Tm   15.230598  -3.281897  -4.400343
Ca   -2.657738  12.057682 -19.290125
I    21.466310  -1.147176   7.656405
Rb    5.466477  -5.432501 -14.071592
Nb   -1.122860  11.677971 -16.080136
Te   -7.668263  15.920032 -14.521348
Cl  -18.653188  15.944867   6.785364
Nd    0.031497 -19.131164   2.789149
Pm    6.613263  17.885646  -9.521761
Gd    8.541978  -5.974088   6.861180
Ba   -1.683826   3.563113 -25.358001
O    -0.690231  -1.611355   9.885463
P     3.733884  -4.252374 -12.576710
Sm  -10.551736  17.860002  -4.150183
Na   -1.470178   3.058350  17.799848
Cu   -7.287534   8.178183 -19.137499
In   -0.067253  19.587189 -14.345654
C     6.462422  15.580860  18.258987
Nd   -2.502630 -14.229320  16.891346
Y    -6.284281 -16.753133  -9.183642
Er   12.207967 -17.936077  -6.067939
Sm  -13.143953 -22.393528  -3.352406
Ho   -6.176291  -0.507054  23.323952
F    -7.862429   3.447065  24.032077
Cr  -21.341311   3.360320   3.651394
H    -2.632971  -0.895499   0.619549
Te    9.368153  16.672502  12.002460
Ar   -1.343745  15.198036   7.636050
Co   -0.500840  12.699755 -21.028043
Nd   18.730966  11.567759  -1.183827
Er  -10.680716   6.127395  15.479806
Dy    2.378321   4.485056 -14.245418
Lu   -3.240497 -15.448738  -3.561716
Li    0.496934  -4.597650  16.433154
Ta   -3.549691  -8.122652 -19.593526
Co  -12.876376   6.059120  22.135944
Cs    2.201188 -21.048075  -6.434570
Sn   -1.220263 -22.398024 -11.339285
Se    9.975818 -17.767328 -11.968677
Ti    2.281480  11.708912   2.948304
Sr   -4.279351  15.360062 -17.616142
La   -1.586987  -2.180140  15.340023
Dy   -8.096892   7.848778  -3.756650
Rn   22.884142  -5.780652  -5.236208
Mn  -21.500235  -7.232966  10.275669
Po   20.602217  -9.792785  -6.587012
Ar  -16.489383  -5.326238 -14.363818
Mo   18.624906 -17.295676  -0.413172
Sc  -16.714859  16.539342  10.694955
Dy  -12.629690  20.824438   1.766473
Au   -4.152279  15.130686  -8.822839
As  -12.477883  14.760064 -16.738495
Br  -16.626400  -7.398056   9.017243
Sc    0.526041 -12.774975 -16.694617
Se   14.764212 -11.645121 -17.438372
Ru   -7.467398  -0.093862 -24.910283
Sb  -11.928828  -8.163978  20.955929
Os   13.061758  19.139079  12.219397
Pb   -2.152273   4.224199  -5.849049
Gd   24.800655  -4.795470   0.912777
Ag   -0.219179 -12.377062   1.277835
Yb   24.400751  -2.624223   9.818877
Cs  -24.831043  -1.356237  -4.055156
W     8.262624   9.078858  22.076257
Te    1.537269  -2.441475  26.027289
Ru    5.223002   7.441423  -5.805371
Os    3.606984  15.807425   9.250226
Tb   -5.456258  -0.464089 -23.425729
In   11.445105   7.236443  16.902843
Ir  -14.577366  12.681919  11.608731
Ag  -12.837761  18.407004   1.006123
In    7.219387   7.142787  17.877346
Lu  -18.211389   0.373111   7.788776
Zn  -14.246625  -2.676377  15.053261
Sc   -1.508932  11.299528  16.756206
Te    6.539965 -16.037846  16.961889
Sn  -12.281804  -5.441131 -21.571393
I    -3.843159   5.777606  22.597370
Eu   -7.731552  10.026169 -14.765874
As   -9.449489   9.064573 -18.474596
Te  -21.003988   1.321046 -10.190384
Er   -0.617674  -7.576776  16.323990
Ba    7.051333  -8.147610  21.893403
S    -4.191915  -0.657833  21.667693
Ca   25.987657  -2.276372   1.470352
C    21.911398   3.192737  12.849763
Ag    9.728453   7.478268   0.755113
In    4.450845 -11.784062  10.028594
Ni   13.184637  11.758932   5.201961
K     5.909820  -7.929475  -1.988578
Pr   20.719374  11.622075  -6.247021
Tb   24.026954   8.659469  -1.624059
Er  -14.045542  -0.821839  16.726430
Ir  -19.162901  13.776275  -1.430148
Mn   -5.189075 -18.564182  -1.152897
Er  -11.293832  14.442769  -0.717346
Os    6.718280 -16.997421 -15.565383
Tl   -2.295064 -25.218233  -7.035223
As    3.044309   4.026901  -0.645238
Tb  -24.074890  -0.273637  -0.787542
Rh   -9.054832   8.274604   6.062407
Fe   15.726165   5.561472  -7.070341
B    -6.191739   3.814041  20.616593
Nd  -14.746886  -2.653707  18.324189
N    -5.083608  10.526042  16.306692
Gd  -16.165624 -19.166344  -1.772468
Cs   -1.602460   1.999141 -19.648917
H    -1.437530 -17.432070  19.309499
Pd   -2.400577  10.205663  -2.462778
Er  -12.754687 -10.862013   4.122149
Bi   22.235692  -9.368317   4.360620
Cd    2.491475  26.319825   3.350360
Cd    3.695293  -1.945573  -1.021831
Sc  -16.137342 -12.876699  11.142975
Bi   21.229277  10.825212  -5.139078
Ga  -10.422586 -20.285669   2.485901
Cr    9.560970 -18.368128   9.228821
Ni   -7.339807  18.463032   4.239687
Kr   15.138612  10.316930  -8.855679
Er  -14.357405   8.176531  -3.192810
Pt  -12.155046  15.483417 -17.172983
Zr    5.119026  14.528301  -3.191829
Cl  -20.351200 -16.595261   4.628329
Lu    4.578049  15.962359   4.270123
Ga   -4.053194  21.003807  -4.754633
Be   21.105422  15.479695   2.008706
Os   15.256600  -8.968234  -9.201445
Au  -22.442669  -2.983975  12.362395
Ag  -21.180431  -6.668437   2.968997
Kr   10.175186  23.302943  -8.040595
Ta    5.668282  21.965086  14.033081
Nd    5.053893  -3.536180   1.141203
Er    0.948296  16.504483 -11.878322
O    18.172817 -17.654584   6.750376
Sn   14.804234  -7.987452 -11.711209
Pb  -12.546549 -13.087945 -12.957890
S   -12.848637  -0.878036 -23.394909
Pd   -4.853671   8.604148  24.070468
Pr   -8.259431   8.397695   5.328319
Au  -12.154911  -4.679994   6.669284
Yb    1.232990  23.743294   8.771633
Mn  -22.223648 -10.269522  -3.073600
Mn   21.461955   1.853015   1.818542
Ba    9.771901 -16.690033   6.902398
Sb   21.352309   0.166043  -0.687400
O    -9.534138  -0.672551  16.587153
Ca  -17.358865  10.263670  -9.301460
F     9.765018   9.263394  19.500204
Au   -6.690907  16.919458  16.916267
Cd    4.942682 -22.763594  -0.454125
Nb    7.454834 -14.019144   0.889105
Sn  -22.255899   6.963945  -8.460186
Cr    4.828146 -21.340270  14.036230
Au   -1.148083  17.581686   2.419846
Hg  -14.992060   8.015890  18.935776
He    1.781184 -12.078391  20.923240
Cl   -8.069961  15.957163  -2.732792
Pm   17.876086   1.040539 -12.231696
Si    8.907415   6.643896  12.866590
Se   -8.522984   2.080778  25.099122
Pb   -9.450625  21.948410   4.301789
Y    -2.965836 -12.145042  -9.634952
Mn    3.342153 -19.291260  14.517891
Co    7.897177 -11.692296  12.606893
Rh    2.773248  -9.569040 -11.616399
Ta   -5.486914 -14.584454   6.054540
Ru  -10.592969  18.186284 -13.873846
Mo    8.970935   0.653477 -10.627564
Rb   19.158993  -1.298406  -6.669224
Al    1.663951  -0.467410  -3.860919
Cd   -4.490750  -0.298868  12.642843
Si   -5.065654  -4.660085  22.745760
Eu  -19.200694   3.845123   6.789073
Pr  -11.923030 -12.518759  18.528076
Cr  -12.415329  -4.848933   0.899886
Nb  -12.665661   9.231732  -5.450048
W    15.897819  19.130179   3.277862
B    -8.968934 -12.529761 -11.071495
La   -5.168086   1.340007  -4.715871
V    13.960899  -3.311197   1.560110
Si   -0.054972  14.194400   5.505714
Na   21.555541   6.971410  11.064304
Hg   -2.912823 -23.884834  -2.929985
Sr   11.978989   4.869265 -20.395445
Sm    5.748932 -18.541138  -4.587041
Lu   -8.532490   5.409747   7.616064
I     4.768435  11.269082 -12.979743
Sc   11.427299   1.335672   0.743988
Cs   -9.078032   7.429816  -2.237340
Ce  -24.371031  -8.162666   0.690374
Lu   16.924664   1.986739  16.698342
Zr    1.892957   7.976475   8.930361
Gd  -14.507185   9.205816  -2.783736
B    -6.450654   6.484656 -19.654138
Al    0.410269  -6.663504 -20.050216
Ca  -16.933384  -6.318377 -18.174909
Ag  -16.769449  11.233607  -0.379171
La   24.314047  -2.218932   4.809833
Be   -0.544693  19.727262  14.379576
Mn  -10.862393   1.320211  20.341433
Eu    2.903191 -13.686534  -4.541614
Cd   11.151293  18.274136   3.170317
Cd  -21.358947   2.435331   3.814956
Zr  -19.503246  14.873018  -7.464628
Au  -11.315832 -13.021784 -14.489790
Ho   10.121022   7.009080  23.442274
Ne   -8.012321 -17.634819   8.669537
Mn    6.279776  -6.237953   5.953683
Zr    9.023935 -19.575616   8.922089
Cr   -1.114463  18.130143 -11.149191
Sr   10.887789  -5.727277  13.426024
Be   15.201314  12.988111  -5.144869
Tb  -10.379668 -22.386143   1.563717
Ba    2.435776  24.333305   7.530453
Ce    3.059878   1.962643 -12.900146
Y   -16.123923 -18.447037  10.402991
B    -7.377383 -19.991737  -0.955490
Fe    3.378681 -17.198295   0.121855
Na   10.251433  17.018977  -5.333190
Na   -9.454745  14.457427   3.236933
C     9.005072  -6.540538   0.973512
I    -9.494569  -2.625223 -13.984924
Ca    3.675383 -25.044447  -7.363281
Na   24.954720  -8.973486   2.581230
Cr  -10.672810  -1.804675   4.933616
Eu    3.476396 -14.493810   3.469970
Rn   13.173863 -14.956225   7.850197
In    9.044189  -4.756614  22.504458
Xe    0.648030   4.721337 -14.811779
Br    7.953123 -18.165155  16.533360
Pm   -2.765339   5.186095  23.391343
W     0.929585 -14.929262 -18.233541
Pt    8.344608 -15.478024  -8.643829
Co    2.473324  18.345517   5.137830
Cr   -0.357712 -20.840832   1.118855
Hf   -4.133940 -19.717732  12.865139
Pt   -7.663335  10.295170   6.014162
C   -13.061916  16.443405   2.819823
Tm   -6.684297 -13.130447  13.168453
As   -2.212452  18.670502  14.695597
Rh   -2.864591   9.906021  -4.286924
Rn   -0.998397  -9.659358 -23.917149
Zn    0.485837 -18.859678  -1.766159
Sb   -2.534949  23.966784  -4.040634
As   -0.449904 -20.159285   6.682162
Os    0.989395   8.641323 -11.781253
Rb  -18.931030   5.722107  -1.146552
Cs   12.450508  11.720505  10.040694
Bi   -0.762919 -21.786033   3.460260
Sn   -3.828558 -13.984603   1.235610
Pt   -7.600688 -21.389080  11.832494
C   -18.804905   5.619439   5.663649
Cl  -16.926469  17.522746   9.841292
Yb  -11.465129  -6.389711   4.863153
Ne  -25.173961  -3.568635  -7.854781
Pt   -5.554537  23.718264  10.979310
Br    5.995992 -20.394647  10.744616
In   -1.892918  14.181886   8.713273
Ta   15.413085   4.412235   9.920460
Zn  -12.455833  -7.180101  -1.481546
Na   14.086274  11.598095  -5.297977
Se   12.800070  -6.889080  -0.502832
Al  -15.003779   3.121491   7.521839
P     1.268399  17.081762 -12.607173
Ga   -3.058708  20.519136  12.504382
Rh    0.565476  10.926364  -9.463557
Tm   -9.814308  -5.220911   4.850013
Cd    6.618701 -17.526723   3.493668
I    -1.697758 -14.884483  13.169487
Dy    8.740989  -4.432029 -19.632517
Al   -4.976552   9.107536  10.559130
In  -20.601790 -11.413300 -10.608674
Pm  -14.426708 -11.110878 -12.483755
Pr  -15.459384 -18.140727  -8.948775
Ni   20.567955  -7.125041  -1.010835
Er  -11.666721  19.076730  -8.852556
Ru   -8.808135   4.427191  23.743793
Li  -15.201604 -16.642939   7.486666
Ne  -13.085109  -0.223558  -1.783296
Dy  -20.947042  -0.109051  14.588119
Xe   18.451016   2.573351 -10.395023
Ag    5.361988  16.993522  14.559598
Cu   -7.947661  -8.556360 -12.488005
Nb  -12.224957   7.281836 -19.015506
Eu   -6.240500  -6.197695  18.311895
F   -17.203423  14.066291  -9.045272
Ca  -15.249181 -20.077900   0.607802
Ce   -7.381133  16.641579  -4.620894
Ne    0.585758  11.286414  11.486362
In  -11.397311  15.480727  10.780922
C     0.146675 -24.613157  -6.082719
Ge   -3.688715  -7.009490  15.894899
Ca    1.804441   6.847484  13.209417
Gd  -20.093112  11.970201 -10.813571
Fe   -5.292778 -17.342194   8.636490
Fe  -17.724518  -4.285343   4.085169
Be  -11.066135  -2.076367   8.874742
Re    8.129250  -0.590081 -20.308771
Pm  -10.090910 -14.345385 -10.936848
Fe  -13.171718  -4.584226  -9.201917
Na  -22.005782 -13.876355  -3.052690
Dy   -2.672425  14.437051  15.668716
Os   13.282393   1.338771  19.620238
Pr  -16.789174  12.091003   0.327852
Pm   16.396571  10.203635   5.535798
K     5.345300   4.989884 -22.970731
P   -20.641004   2.452955   9.051754
Ir   -2.794584  -9.232201  -4.847228
Rh    5.677208  -8.579853  -7.933559
Tm   12.593712  -6.816234 -17.903135
Ho  -15.862218 -15.340627  12.726616
Br   12.541756  19.164612  -6.327064
Pr  -13.107622  14.286220 -10.109861
I    -7.994314 -21.853454   2.369263
Te   -5.730567  20.518717  -2.582235
P     2.538002 -23.359774  -3.031072
He  -15.403215 -20.846107  -0.539828
Be    3.403097   3.905643   0.426797
P   -13.863529   7.393584 -17.829518
Ho   20.230784   4.300078  -5.873712
B     1.214608 -21.897575   5.108175
Sb  -13.434424   6.938698   2.425176
Zr    6.085368 -12.120483   1.962482
Hf    9.198640 -18.206593  10.430061
Ru   15.810863   8.021404   9.845129
K     2.961473  -2.710840 -22.043229
H   -19.539082   6.564936  -8.455282
Rn    3.814067 -10.026800  20.048870
Lu   -2.060909  13.410377 -13.223625
Zr   -2.895665  15.520704   0.997797
Si   -7.326561  22.492395  -0.824657
K     2.311284  -8.101847  24.919255
Lu   -4.374312 -21.259309   6.922403
Fe  -21.716939  -9.521911 -10.212359
Pm   -3.108241 -19.554744  12.244184
Ho   10.875604 -22.377127   6.451315
Na    8.203952  15.279211 -16.304120
Pt   -5.366793 -15.727122  -6.539107
Sc   -4.128301   7.856615  -7.607141
Ar    6.903051  -5.548937 -16.646946
In   17.052234   2.169968 -15.710721
Na   -6.581708   6.089978  -4.989721
Rn   19.114762   0.726820   6.931687
Ge   -9.710123  12.822624   8.432677
Br    5.787602   6.158690  -3.648866
Ir  -12.781911  11.294192   5.090749
V    11.042421 -19.823284   2.073221
P     0.738369 -12.752109   6.329064
Sr   13.272868  20.429295 -10.584112
Yb   -5.661485   5.411830  12.012691
Hg    5.603801   1.002469   4.171633
Pt  -14.957838  11.576331  -1.985088
I   -22.197941  -6.688688 -11.834153
Ba   -3.696284 -19.869355 -17.049837
Ru  -10.206962 -12.541002  -3.275173
Nd  -14.159961  14.286679  17.476751
Co   -2.919937 -13.134766   3.441145
Hf  -13.380724   9.218649  -1.015024
Pt  -18.138256  17.338316  -4.430932
Fe   10.819878  -1.470241  10.345272
As  -16.239255   7.177635  15.449969
Ca  -15.733322   1.036315  13.123433
Li   -2.764329  11.349007  -3.819110
Nb   23.501871   7.450449  -6.225050
Nd   10.462517   6.108901  11.539845
Pb  -16.807520  -0.926366  14.759522
Te    1.260446 -14.312051   2.178611
C   -10.909938  12.537123 -19.764836
B     2.492453  -1.090611   1.236977
Ag   -4.991424 -14.269716  12.778226
Nd   20.193632  -4.349687  -1.684646
Pd  -18.313835 -16.511495   7.665679
S   -10.509138  -7.861382 -10.891838
Xe    8.167147   3.392160  -6.055110
V     0.698018 -15.791800  -7.351485
Pb  -13.747718  -8.638087   3.300473
Ag    7.779829 -17.329931  -2.631203
Rh    3.939125  14.094331   4.766117
Co   -8.783189  -0.446477 -25.093328
Tm    2.081046  20.440117 -13.942306
Er  -14.866348   7.863641   3.129956
Gd    2.417509 -16.510356   8.266008
O     6.148483 -11.209553  20.475229
Tc   19.436645  -3.320320  13.012731
O    13.864828   8.553211 -16.433100
Ta  -11.212801  22.218823   7.227103
He   -6.323781  -2.306979  18.510391
Sm   -4.609052  23.724714  -5.849200
Cs  -20.213376  14.198134   1.379891
Lu   -5.701263   4.533478 -25.264257
Sb   -4.963688 -19.931178 -11.403173
Al  -19.097215 -11.144294  -5.590594
Ce    7.479330  10.095341 -13.490728
Ga    2.211003 -11.762016 -18.185712
In  -12.417563 -11.204538   2.236181
C     1.296247  20.820105   6.674503
At    0.083375 -23.594954 -10.814525
Mo    1.618748  10.447612 -22.329082
Ru  -14.870917   6.460951  18.100861
Ag    2.007648   2.662693  -7.494334
Mg  -12.887592  -5.882883 -17.284092
Y   -18.792474 -11.106103   9.685050
C    -4.275997 -18.433499 -10.824969
Ga   13.032501 -16.618469  -5.980984
Ne   19.134275   9.846484  10.413413
Sb   -1.589622  20.417293 -16.752132
S   -10.812409   4.335844  17.652746
Ru    2.440087  19.202082   5.597832
Ce  -18.995405  -5.687872 -10.605101
C   -20.228747  15.082419  -2.130754
W    -6.286143   4.065844 -19.186069
Pb   -0.852697  10.616103 -12.838269
Sm   17.205913  -0.277789 -14.747470
Cl    0.400546  17.216869   5.972018
Tc   -4.655017   6.202943   9.612772
Tb  -12.924261 -10.500654  20.162625
Cu    2.073856   6.856273   4.176903
Cr  -15.448215   2.822390   8.998213
At  -11.801762  -5.012535  -0.936073
Ti  -13.340369 -16.176246 -15.447427
Ar   17.298079  -6.437665  12.910465
Ce    6.093872  13.011252  -9.315984
Lu  -15.178634 -11.084502   2.858647
O   -11.426483  -0.727266  17.589953
O     8.629370  19.656827 -10.000010
Ag    8.028719 -14.102910  13.254904
Ar  -13.322153  13.197844  10.544673
Sm   -0.327978  23.433487   7.300716
V   -13.879844   0.211310 -10.267040
Dy   16.958695  17.448297  -0.461554
Cd    6.833964  -0.325078  17.906340
Sb   13.508998 -14.412257 -14.780680
Ho   -7.114367   2.895679   1.439980
Lu   16.497836 -20.558062  -3.063387
Be    7.435343  -2.699155 -21.113821
Yb    4.203968   0.554897 -13.759020
Ar    9.290361   2.136312  -9.298294
W    22.994820 -11.440157  -3.934034
Mo   10.181222  12.777262   1.209349
Ge   14.330133  11.946584   7.868437
Er    0.236007  11.783488   1.274712
Hg    7.053227 -14.017771   8.324102
Cu    0.768002   6.040596  -9.021083
Cs  -12.130863 -15.677893 -16.840265
P    14.657083  17.311718  -2.175520
B   -11.380779 -10.118028  14.891736
Sc   15.301771  -3.279038   1.925931
Bi   -1.635960   7.409361  -4.540716
In   -2.016405   2.973889  -8.392962
Se  -16.022594 -19.138345   8.958516
Li    8.261003   2.154548 -11.740071
Eu  -17.641922  12.163566  -9.369108
H    15.242202 -13.978479  12.861729
Te    9.726491   9.040144 -19.467630
Ca   -7.708804  11.768889   2.360258
Na   -8.004439   6.809540  10.749437
Si  -20.324216  -3.670997 -13.578585
Ar    1.112530  12.834861  22.644352
Rh    0.328937  13.156991  -3.703797
Bi    9.788611  -8.266850   4.006371
Rb   -2.156586   2.764490  25.686552
Ge    7.853539   2.479600  17.288503
Mo  -14.163694   1.183643  13.038574
Tm   21.736592  -7.635941  -1.642446
Pm    9.670059   5.699266 -13.303533
Ne  -21.649099  10.969936  -5.965693
Re    9.129865  22.826559   1.510495
At    6.069207 -23.351835   7.282656
Lu   -7.151949  16.142491 -17.067699
Xe   -9.242326  -8.598103 -22.868266
Rb    6.308053   9.815715  -9.477148
Fe   21.883449  -2.454125  -7.384210
Ca  -14.496957  -7.846351  20.099922
At   20.907690  -4.894366  -9.675490
Se   22.565990 -11.610503  -4.990353
Pb   -9.652450 -17.880596   0.082461
P   -13.813019 -13.100428  -0.015718
Xe  -16.085060 -10.031291  -5.518573
Ti   -7.438725  -0.150230  -2.941372
Hf   14.705496  -4.438863  17.704088
O     7.628893   3.193852  16.696586
Al   -7.364339  12.852925   1.852912
Xe  -22.121592  -7.708235   5.664874
Os    9.963209 -10.742687  -9.962527
Pd    2.488782  -9.696201  22.689531
At    7.551635 -20.698061 -13.249500
He   -3.993721   4.585407   9.185198
K   -13.668114 -15.922855   2.248902
Y    -5.454606 -15.218983  10.503941
V    -5.181555  23.510595  -6.905985
Ti   -9.379821 -14.776715  13.221487
Rh    7.305085   7.788875  23.015493
Cr  -11.152219  -3.788844  10.023890
Hg   -0.486970   4.053951 -18.880936
Cu   11.875122  11.409306 -11.680775
Ne    6.445030 -19.252933   5.437658
At    2.045188   4.656552  13.626815
Cr    1.888723 -15.032027  12.472908
Nd   -8.520040 -18.206572   6.551179
Zn   -1.066946   5.827015  19.145862
Au   10.026662 -13.771102 -17.936527
In   -4.822121 -15.541529  -5.659617
Ho   -4.357131 -12.559758 -17.499647
Zr  -22.842113   8.553912   0.675920
Ne   -9.700046   0.889015  22.996673
W    -5.129636  13.609690 -12.661028
Ce  -14.826382   5.224662   9.154739
Nb    3.488292   4.517416 -12.477383
Co  -12.421892  13.150732   3.523351
Y    10.168165  -8.071644 -16.614872
Si   -2.122938   7.427145   7.945884
Be    1.759145 -17.200739 -19.143474
He    0.159481  -6.781584  -4.108211
Xe    4.246604   8.622050  -8.933904
K     7.707006  12.985369  11.418816
Mn    4.788852 -14.296448   9.483514
P     8.739215 -12.302236  16.193665
Ta  -16.052617  10.189165 -11.852828
Al   10.743806   5.235391  -3.058195
Sc   -4.393347  -5.528743 -19.363704
H    15.283574  -6.938223   2.823287
In    0.453720 -11.726999 -13.264775
Ag   -7.756717   1.636293  12.465362
Pr    8.004080  11.530831  22.137008
Rb  -19.245028  -2.679229  -1.337394
Cu  -11.926436   5.465306 -17.328192
F    -9.805330 -16.707747  -1.006907
La   -8.487724   7.192023   7.033164
Nd  -13.292107 -11.227245  17.528638
Y   -15.669890  -6.283613  -7.800396
Au   -1.730132   5.574195 -18.093933
B   -23.938740  -5.637507   2.298481
Mg   -6.187521  14.855526 -16.598381
Xe   11.152542 -16.813972 -11.136763
Au   23.582548   2.963214  -6.115070
Na   -5.702897  15.806931  -3.997909
Te  -17.184176   5.240054 -19.100266
Al    4.165497   1.271139   1.953715
Ca  -14.672979 -13.204836   7.181099
Bi  -16.492692  -3.013493  -2.296410
Mn   -4.340328  -3.753383   5.160418
Li    4.202249  19.324063  -3.235877
Be   -1.284611  22.301542   3.703313
O     0.365766   8.188295   6.875771
Po   10.590028   7.289637   1.803425
Ta    5.801477   8.166217 -17.961752
Ge  -24.208383  -4.870662   2.757327
Tm   11.048191   3.492992 -12.913767
Au   14.412864   6.825206 -17.525219
Er    9.705473  13.907454   2.599545
Sc   -0.712085 -18.262968   3.692833
Eu    2.793687  10.226593   4.357925
Ce   14.060644   0.451806 -22.108366
Pd    8.168523  -0.638396  17.032451
Er   -8.670725  20.336296   1.445034
V     1.273865  13.321963   8.749721
Er  -14.196722 -17.117386  -5.676607
Gd  -14.380722   2.278505   1.228818
At  -11.075880  -6.457992  10.358570
Y   -11.986728   7.349319 -21.936946
Pm   -4.725275  11.377025  -1.457876
Tb   -4.240116 -13.605830  17.690012
Re    0.690413  -2.225485 -19.343459
Pb   -0.714055   0.677154  25.137773
Y     1.125432   9.183198   4.140091
Zn    9.041140  20.317872   7.773987
Nd    1.909308 -11.474369   3.328956
Pm   14.835796  -4.824212  -5.647280
Yb   -4.349723   4.396085  16.876363
Ge  -13.289989  -9.887674   9.559063
Cr   17.523019   7.345196 -14.249604
Mo   -6.341874  10.535533  21.254356
Pt   13.532021  20.484105  -0.265624
Na   -1.459398  -6.704623  25.737052
Li   -6.105382 -12.103453 -18.653745
Al    7.762626   7.682519  13.001361
Nb   -7.066511  15.936790 -13.352488
F   -11.970353   6.553632 -15.709703
Dy   -1.861054  -9.955825   2.342203
Br    5.493791  23.589883 -11.205728
Tb   11.237078 -10.311431  -7.883567
Ga   13.390670 -11.825284  -1.472940
Ag   22.313221  -0.485900   4.377956
Se   -1.420414  -1.309311  14.826728
Ta   -0.545775  19.982370  -7.606254
Be   -6.284011  -5.304255  23.705363
Ca  -11.571657  22.291354  -8.176436
Xe   22.833561  -5.932666   0.796038
Zr    2.585733 -21.017824   3.065612
Be   -1.240386 -24.662461   1.364088
Ba   -7.717152 -23.313910  -2.572081
Ar    2.004673 -14.735888   4.594912
Eu  -15.840280   5.787361   7.272828
Se   12.042429  -6.374051  -3.836813
Xe   -9.594623   5.211884   4.289053
Ne   16.067797 -16.035424  -2.567545
Fe    4.876144  -4.363782   0.055668
Ca   15.784659  -3.140594   6.296890
Pd   -1.602296  14.900052  10.452999
He   -9.712770   8.001622  11.798642
H    -7.383906  -4.427245  -1.072590
Cu    2.146874  13.673614  14.043134
Bi  -13.669235  11.689428   0.989743
Mo   -2.326555   5.988470  -4.123624
F     5.776274 -21.884258   9.628794
Os   15.666048  -3.395204  -5.569129
Zn    6.584253  24.350833   1.231642
Mo   -4.064286  22.985337   0.333321
C   -18.359572  18.293317   1.244995
Zr   -3.929466 -14.413998   0.046976
Rb   12.226009  15.169740  -4.418565
Pb   -6.190037  -5.753097   6.370393
W    11.053026   9.694767 -18.040850
Hg   11.795148 -16.545266  -0.038330
Nb   -5.796430  14.237599  -1.955517
Kr    9.776207  -6.169466  19.326187
Cl   20.704848   7.111380   5.334276
Os   19.585988 -14.837883   2.267348
Zn  -16.202786   7.290262  -2.196672
Dy   19.060136   6.565610   6.021456
Tl  -20.093582   7.677626 -13.108385
Ir  -22.796301  10.400569   2.225052
Hg   13.298080  -9.178773  14.021715
He   -5.082600   7.976781   4.254053
La  -13.061110   8.390197  18.210053
Cd  -18.495187   1.481495  18.145971
Zr    2.681564   0.544339   1.603642
Be    7.249188   4.675364   9.242844
Yb    7.745252  19.865650 -13.484398
Ge  -14.432372  -1.574528   6.770251
Ne    2.765867 -25.731375  -5.084041
Tm   -4.015340 -24.475766   9.902690
Re  -19.118354 -12.902597  10.290499
F     0.268534  -7.975943  20.503192
Po   -1.939257 -17.117514  -2.077689
At    2.403942   5.794218 -25.948384
Ga  -21.372300  -7.708273   6.992707
Te   -1.541914  -0.228126   9.128761
Ta   13.201541   5.242301   5.018734
Rn    0.744033  -4.929021  -5.895432
C   -19.855044 -14.883990   3.018342
Al   14.517735 -14.233679  -4.019958
Cs    2.423014  16.292086 -12.187119
Al   -8.610124   5.867297 -15.702668
F     4.958302  21.977189   5.673223
Cd  -20.876635  -7.254336  -7.943551
F   -11.143514  -6.415022  -3.483175
Ar  -16.968590 -10.376741 -10.196381
Sr    5.928776 -22.180999  -4.457895
Li  -20.921665  -5.473777  -1.402107
Be   19.273710  -7.646678   5.840490
O    -4.889397  21.224635 -12.404909
Zr   -4.463838  11.284136   5.697930
Ar   14.342364   5.693860 -11.988835
Kr   -6.306434  14.029797 -11.707917
Ni   21.207968  -4.471539  -0.069407
Li   13.618477  -7.426589  15.991783
H    -2.767847  14.549965   4.776926
Mn   15.728292 -13.265432  10.553469
Gd  -11.895868 -15.878580  -0.901140
B    14.195177  16.302459  -4.715973
Pm   18.535936  12.459201  14.578655
Fe  -11.772692 -22.206035  -8.912736
Sb   -6.302893   6.939130   7.762350
Bi   -6.013979  13.253307   9.503080
Tm   -5.444076 -20.153063  -5.724334
Ce    2.243842  -6.773316   5.737304
Al  -18.949148  -4.629726 -11.283431
Pm   -0.010835  -5.882406  -0.057868
H    24.609427   2.968371   8.448689
Yb   22.170823  12.490576   1.563386
Pd  -14.901150   2.336917  10.484388
Eu    5.770884  -4.159771 -17.041438
Tl   -1.403983  -0.491046 -22.417138
N    -5.894483  10.692091  22.820730
I   -11.342731  21.838310   0.835512
In   13.762957 -16.021640  -1.319605
Tb   12.965211  -0.516607  15.604286
Sm    8.071690 -20.264021 -11.173811
Yb   -9.697723   0.035366  -7.251413
Te    6.121380  13.391528 -22.110128
Au  -13.721565   0.237887   4.371739
Gd   20.805556   0.422788   7.199019
Lu   -5.300494   7.922070  17.695021
Gd   20.768515   2.522679   2.502518
Ti    7.450376 -13.402776   6.561487
Ir    3.237876  10.357274 -16.253549
Nb  -20.515992   8.875376   0.188659
Bi   -8.023315  -8.998322  -5.372361
Rn  -17.078285 -11.450013  -2.057868
Zn   16.169187 -13.738899  15.141917
In    3.221894 -12.984509  -6.672837
Cr   -0.286858  10.078439 -12.136608
Bi   -0.956206  -0.619473 -26.366631
Er   -1.879096  17.768440  -1.447938
Nd  -17.296713   7.020648   6.793555
Eu    4.002261   4.591630 -13.508107
Ca   -1.143987   9.448569 -10.501622
Na    6.965240   4.391060 -14.163064
Ag  -10.957759  -4.751181 -23.823984
Sn   10.975275 -11.674543  -7.737082
Be   12.581116   8.499610   8.901433
Hg   20.646041 -14.667294   4.048695
Lu  -16.327054   8.941530   3.762076
P   -14.882112   1.325246   0.861353
H     5.652676   0.790567  21.384659
Au  -10.031192   5.609604  -3.774073
Ge    4.902527  -7.813353 -11.940537
Dy  -14.443677  12.275526  -5.844284
Ce   11.835277  -5.457775  16.264288
Ta   -2.579275 -24.199864  -9.090264
Ru    6.672819   0.346081   2.941283
Tl   -3.101157   7.761798  15.910788
Os    3.849933  -7.093712  18.475449
Cu    6.630629 -17.586916  -0.294176
Ga   -9.505077  -5.841145  17.709435
Se  -24.099138  -1.319756   7.616401
Al  -18.110762  16.914737  -8.939862
Br   17.078586 -11.250169  -0.199395
Si   -7.769125  -2.309740  10.430602
Nb    8.644413 -15.011064  -0.672289
Pd    3.756160   8.857660  18.822557
At   -3.307981  -8.414317  12.748656
Sm  -11.488281   5.451304 -11.899886
Rh   23.151379 -13.219544   1.518830
N    -3.762940 -20.132997  -2.936084
Ta    4.110608 -13.214745 -11.419867
Pm   14.034409   1.211414 -12.277060
Mn  -11.014328   8.445496   3.733929
S    -0.308444  10.827090 -14.987838
Y     9.074136 -16.550279  16.739473
Ni    9.155233  -2.485212 -12.840144
Y   -20.453679  -2.207691   5.751670
K     3.821774   0.266642   5.114978
Rb    1.802502  19.102303   7.437196
Bi   -1.154954  19.982810 -12.213760
Mg  -11.195985   3.306993 -14.688644
Eu   13.179160  -0.807776 -11.345909
He   -9.560946   4.316250  14.262453
Co    1.331416 -12.200158 -19.853640
Ru   24.018484 -10.323760  -1.448530
Li  -11.854589  19.428537 -11.796862
Zn    7.343443 -14.361956  20.359853
Zn   -0.338698  19.015475  11.595293
I    14.399897 -12.923295   8.030755
H    -1.194072 -14.079382  14.538412
Mn   13.677826 -17.806888   1.457556
Lu    8.127962 -19.785970  13.245977
Yb    3.844436  -9.660852  16.418459
Hg  -14.382545  -7.095943  -6.035302
Re   19.237569  -3.269898   1.726681
Sb  -14.553897   7.450548 -10.782092
Tm    6.152148  20.004724  -3.685830
W   -11.999007 -15.806284  17.068491
He   -7.187567 -17.152514   9.647139
Zn   -3.144333 -15.894305  -9.493438
Sn  -14.675436  -3.797906   7.133918
Ar   -1.706106  11.309792 -16.998540
Hg   -0.097983  -8.459192   3.724623
F   -11.738509  -5.051672   4.686450
Mg  -13.826803   3.569931   0.406471
Ge    0.339281  -1.996808  23.101426
Ag   18.683288   9.456796 -16.337580
Er   11.402722  -0.014718 -12.326853
P    -2.270716  18.127346 -18.837724
Cl   14.991889  -8.794040  -6.067965
Tm    6.478680   7.947681 -22.830502
Li    0.806885   2.593684 -19.172537
Sr   16.129143   7.049656 -17.064041
Pd    6.198915 -16.329899 -15.752494
Ar   -6.317099  12.799639  -6.981848
Nb  -14.551697   1.868399  -3.558461
La    5.529426 -11.119345  -8.240887
F     4.906811 -20.473993   5.164675
Cd   -1.225807  -5.505974  13.735343
Ba  -18.629518  -0.316224  18.469859
Lu   19.553221 -15.571812  -7.043374
Cd   17.035152  14.021918  -4.305872
Li  -14.237596 -12.234461  -7.861167
Re    1.619042   8.807632  17.821433
Tm   -6.370283  14.960861   8.968537
Zn    4.310578 -14.670065  -2.458909
V    11.544906   7.969401   6.500250
Ta  -24.368118  -7.653462   7.590942
Al    7.695453   2.831453   2.495806
Rh    7.361166  12.875381  18.427240
Rh   -0.872946  -2.230714  23.493522
La    7.534929  -2.103492 -19.213559
Re  -11.620863  15.112378   3.785026
Ho   15.049565   7.008460 -13.077716
N   -20.606053 -12.119309   3.920779
Mn   -3.684128  20.170062 -10.273574
K    11.386954  22.226931   2.673356
Ho    7.062041  -6.483892 -21.652535
Au  -17.783558 -15.257773   9.042436
Ir    5.421414  13.285830 -12.544187
Y     7.312922 -18.369213   4.957755
Co   -2.104237  -4.380982  13.155144
Ag  -14.761058  -6.609018   7.559982
Cd   -6.972504 -10.954418  19.772415
In   11.741442  -0.563922 -16.335288
Cu    4.250380   8.416295 -18.699911
Gd  -21.182199 -13.943733  -7.174827
Br    5.756104  -2.726530  13.373177
Br    5.219839  13.799248  -5.705420
He  -16.756051  -5.187767  -5.010461
Yb   15.062295  17.650036   9.500448
Te   14.231422   7.522165  12.563575
Si    2.456017  19.425662  10.829479
Sm   -3.725585 -16.923171  15.131901
Re   20.600947  -8.670700   9.535435
Ta  -21.681777 -12.735830  -0.971095
As    5.997341   5.490992  -2.574731
Ta   -7.274635  -2.986064 -21.102824
At    3.171245  18.684945  16.376087
Si  -10.934298  20.677621  -5.945157
Ga    1.683221   0.955935 -11.559830
Re   12.311937  19.488503   1.829017
Hg    1.959755 -20.853254   0.883598
Ni    0.273772 -15.766071 -16.546674
Cs  -17.233944  -7.126564  12.355903
Rh   19.343225  12.666891   9.052761
Be  -19.807468  -8.770105 -10.415568
Kr  -13.333698  16.535528   5.887882
Sb  -11.059729  -5.567740  -0.527941
K    10.363481  21.505172   5.259204
Se   -9.159824  -1.282661  -3.169448
S    -6.569040 -14.497956  12.382915
Cr   -1.097705   9.806158 -23.236649
Cd   15.439790  10.304141   7.796653
Eu   -3.326857  -8.993685  -5.490343
Na   11.897105 -21.942478   7.385494
Zn  -19.073973  12.876057  -2.509267
Cs   21.820424  13.150326  -3.498412
Rh   15.187374  -3.926798   4.005392
Ba   -2.643654  -9.113209 -15.968044
Ca   18.307179  -2.978953 -13.424255
La    7.825464  12.615436  14.773548
Kr  -14.758083  15.268279  -1.666548
Kr   25.330378   4.884737   3.834863
Co   14.417756  -8.195390  -7.776204
Ru  -11.076807  11.622933   9.695879
Xe   -3.768665   2.503401 -15.141469
Pm   13.835818  -9.999727  10.277637
Os   10.738376   1.713208   7.542926
Sb   20.776924 -14.172547   7.043155
Ar   -9.379134   5.604069  16.994473
Sn  -18.219030  -1.509658 -15.667533
Ge   17.992780  18.936974  -4.736089
Cs    2.279808   6.552285   7.863557
Se    2.556429   7.832103   5.384558
V     9.158816 -21.715065   0.550134
Sm  -17.493095  -4.998543   0.081309
Al   -3.307948  -3.902243   7.285672
Mn  -12.479045   7.694410 -17.673059
Ru   24.777751   0.381234   0.423798
He   -4.174036  17.455564  11.424326
Te   -1.380518  -9.044643 -12.786987
Rb    3.622978  16.960230  -5.822077
Os   14.786500   2.864996 -13.611689
Cl   10.933141 -16.399339   8.284516
Eu  -14.873846   3.657332  -7.477902
Ta    1.614291   9.452959  -5.101629
Gd   -2.457824 -17.586041  -4.443441
Eu   -6.208480 -22.144126   6.950840
P     1.117845 -25.640418   5.842133
In   26.444291  -2.465451  -1.975151
Re  -14.446431  -6.660449  -2.564587
N    -6.607579  -5.826613  -1.311570
Sr   15.124082 -19.342218  -0.324343
Sm   -8.405845  -1.738395  16.038388
Tm   16.977708  -4.319956  -5.980772
Co   -0.745779  24.252963  -8.276585
Ne    2.941196   2.433374  -7.897700
Sb   11.274028  16.331799 -15.770965
Bi    4.147717 -16.957415   9.980775
Co    9.852882  16.304263 -12.971611
Gd    0.794150 -17.083146  -4.378408
Ca  -16.535769  12.570454 -11.237779
Ga  -21.976593  12.619249  -0.921320
Pt   -2.189827 -13.971881  -4.196094
Pm  -10.998131  -1.346372 -23.604393
Ar    3.241478  10.825434  16.094239
Er  -13.416389   0.126358  13.875400
Os   19.826683   1.172243   9.861677
F   -13.813144  -9.131777   3.992986
Pr   -7.772352   8.803649   7.363904
P    -3.951985 -24.366989  -1.677487
Cd   14.041303  -9.775821   4.510736
Ni   15.721036 -14.099770  13.762615
Pd   -7.075304  20.435532   7.906465
He  -17.159053 -14.279648  13.895965
Ge   12.845256 -21.344379  -5.261252
Pm   17.459462  -2.447949   7.610980
Hg  -11.148348  11.786613   4.793006
Cs   19.212036  -4.420584 -15.832252
At  -23.278735  -9.255484  -8.759448
Nb    2.236655 -18.175880   8.019117
Sb   13.428722   4.474464  14.314898
Cu    0.712596 -17.438430   8.925003
Hf  -13.965622 -18.545643  10.949139
Ag   -9.838862   4.650272  -4.352385
Pm   13.970800   1.489629  -6.465189
K     7.320524 -12.071131 -18.493697
Cl    0.101212 -16.797720 -14.774166
Ho   -3.506632  -4.064791 -20.809885
He   -0.229815  -2.534556 -16.793757
Ho   -6.246919 -11.363320  15.295278
Ta    6.424018 -14.167430  -0.588132
Pt   -6.486731  -9.986476 -10.661822
Au    7.323052  -2.545060   9.506183
Gd  -17.134298   2.490733   6.829158
Pr  -14.117697   7.285824 -19.083387
Pt    3.071681   9.369713  18.331960
Mo   20.697145  -5.689643  12.156407
C     3.820832   8.220425  -7.519545
Cu    0.830604  22.012344   7.028347
Os    2.939602   6.790247 -12.991347
Pb   15.836823   2.920707   8.397591
Bi    5.430399  -8.458375  -4.852214
Te    1.882744  17.079847   8.319531
Rn  -23.761905   2.522856   4.980633
Dy   -3.379877  10.153874  -5.503203
Sn  -24.863833  -0.732992  -1.181264
Y   -10.705300  21.638979  -1.194676
Pr   19.919028   8.894073  14.748689
Ho  -10.137791 -17.889346  -6.243019
I   -16.070182   0.114250  18.489292
Kr   13.051156   3.304933  -4.215361
Pm   -9.231926  19.049489  -6.831295
Ir    6.118692 -21.018589   7.222214
O     3.387070  -0.815564  18.614242
Ta    1.314414  13.143788 -10.196294
Hf   -2.242642 -12.162205  -6.744623
F    -8.390391 -10.067597 -16.453839
Sn   -6.591110   0.560084  22.551436
Ga  -12.239322   3.755640  23.428232
He   -6.498972   6.160405  -0.185067
Tc  -12.174945  15.736427  16.775860
La  -15.616707  -1.375311  -2.546228
Ru   -1.356984   0.808632 -20.881455
Kr   -7.861285  10.103425   5.132735
K     1.887845  23.134985   4.481990
Cs   -6.376252  13.467517  -2.701460
P    17.929095  -2.050127  18.453387
Te    8.592690  -1.683877  12.849480
Ti   20.096823  -8.042938 -11.263429
Zn   -0.624129  -8.039809  -1.295179
Pr   14.642063   7.297546   6.966290
Mg   20.575179  -2.362221   9.933682
Kr    3.557003 -15.476524  -4.793995
Lu   -7.793896   9.075015 -18.535726
Ru    0.305363  -3.985498   3.079927
Hf   11.216142 -23.114168   3.120153
Rh  -10.923646  -6.436218 -11.811115
N   -14.333539   4.576352 -21.993592
F   -12.590238  11.355766 -10.491763
Mo   14.443695 -18.868605 -10.953852
Zn  -21.659562  -4.838336   0.652014
Zn    1.108718 -19.435030   2.179126
P     6.537675 -13.147064  -6.320201
Cs   -2.099960   4.560022 -20.972297
Sm  -13.670033  13.418660   2.052976
Al  -10.998733 -10.002935  17.668937
Rb    1.654570  -0.107415  15.012763
C     0.584001  20.089564  -1.457887
C    19.838536  10.931969  -5.979583
Pr   -4.792661 -13.697848  18.903351
Ba    3.087858  11.161067  18.521461
Re  -14.455028   8.099277 -14.474393
K   -10.834969   7.362778  17.810779
Ti   -5.066651  13.187944   2.407633
Cs   -6.179491  21.633062 -12.747541
C   -25.301210   0.417811   6.889336
Ce   -9.482389  -0.291161  -3.136330
Mg   20.870430   2.127560  10.381642
Pr   -8.010057 -12.703120 -14.937831
Dy  -15.822612  -4.762497  13.466237
Ba    7.299760  25.200123   1.044613
N    -2.810426 -20.563273 -12.424086
Gd    5.719096 -19.386556   2.368409
Ar    3.136971   0.275081   6.377570
Cd    2.770248  -9.923210   4.063953
C    16.756831  -8.267670   6.902291
Kr  -11.817360   2.264532  -2.309559
W     5.677556 -14.432410  -4.301190
Os   17.619573   0.033955   6.872564
Co  -10.469123 -16.737988   3.119942
Re   -5.083533   4.374531  24.107995
Cu   -3.958190 -18.446417  18.702270
Zn    5.637766  -1.070517  -8.391146
Eu  -21.423596   0.204052  -7.253815
Cl    5.724044  20.187827   0.178635
Rb    0.593167 -14.264123   6.568283
Y    11.686448   1.093102   3.500623
Be   20.524333  -0.701607  16.357119
O    -9.504744   1.281151  -8.514891
Ta  -21.520496  -3.177724 -12.039247
Ir  -17.456477   8.037527 -12.923955
Ge   14.736415  -5.046459   4.574205
V   -16.317702   7.397411 -14.753809
Ir  -15.272203  -1.027073 -17.204078
Rn  -14.126022  -3.348631 -11.927234
Ta  -10.742629   6.717452  -2.906495
Y   -13.670558   9.261990   7.287914
Br   17.877404  11.151105  -8.736749
Te   15.199463   4.211717  -2.008960
Ge    8.041191   4.976625 -23.806187
Ho   -7.526830  -2.053297  13.755808
Hf   -3.185141 -17.480242  19.286313
Ca    5.600689 -21.198509  12.533425
Re    1.855002   7.579043  17.642762
Sb    4.549546   0.748247  -4.471939
Eu   15.630161   8.594498  -6.579144
Nb  -10.305372  15.141611  13.853876
Ni    0.577008   4.711401  14.748553
Cu   19.395210  -1.902677 -10.454288
Te   -7.979177 -13.275226  18.567175
La  -12.648243 -11.109245   8.514556
Pm   -2.249089  -8.763470 -20.597810
Sm   11.698854 -19.420102  -3.152876
Fe    7.392383  17.605474  -5.323880
Ca   -3.252315 -22.711478   2.080553
Br  -15.101858  -1.987457 -14.664478
Mn   15.944589 -10.732597   2.078593
Ar   13.161394 -16.848294 -13.771336
Zr  -19.249277  -7.947842   8.066842
Sn   -1.392333  23.758898   1.691245
As    6.680513   7.771467  20.652621
Br  -10.240416   1.123492   3.931078
Tb    7.571298  23.305463  -1.305819
Ho   -5.947100 -21.255829   7.840857
Ir    1.491110   7.884252   1.802368
Be   -8.501823   6.352819  23.114168
He   -1.797408  -0.026659 -23.178031
Pb   -0.929840  22.615867   2.231915
Au   -7.447152  -5.517027  -4.003064
Tc   -0.387893   1.463700  11.927518
K    16.229593   2.344667   7.823148
Dy   16.101847   4.631188   5.542415
Kr   -3.061711   5.424071  18.637789
Re    9.129531   9.138970  -0.780216
Au   20.536858   9.060503 -13.044269
Kr   20.758178  -5.820552  10.636971
Zr   17.043860  14.585733 -11.296708
Ho   18.836652  11.836935   4.667367
Sn  -13.184618  -2.451053  15.780345
Mo    8.897259  19.515352  -1.607424
Zn   11.626095 -18.017339   3.052615
Cr  -16.862811   0.309737  -3.928182
Cl   14.704013  10.728382 -12.100763
Kr   -0.652730   1.542963  21.957480
Al   -9.265845  -1.712347  15.578495
Rh  -10.821302  -9.929118  16.154551
Li   22.440433  12.219436   6.963250
V    -1.365254  10.918957   3.778580
Ce   14.130984   4.141679   4.087225
Ni  -11.929925   9.571775  -7.876219
Na    8.399543   1.728003 -16.857969
Fe   -1.859879  19.635374  -6.893221
Pb    6.579795  -6.932204  -6.292933
Eu  -15.302190 -11.950601 -15.892740
S    21.170753  14.140076   1.657210
W     9.323354  14.641264   5.468411
Cd    3.533353 -23.066135   2.317971
Tb  -11.663970  14.983045  -7.746859
Cr  -11.525901  16.821673   6.860464
Ce  -10.341704   7.034257  -5.374555
Au    3.047524  25.021125  -1.659428
Ba   -9.595059 -10.333769 -21.116966
Be   18.822856  15.006428  -3.502749
Ne   -2.777182  -2.691802 -18.616616
Ne   -4.472287 -12.157488  -2.624971
As   -6.848577  18.396002  -8.757777
Cr   18.240399   6.850708  -2.421867
Fe   -5.511869  -0.576991   1.819096
Rn    5.129165 -17.056426  19.146884
Cl    1.815226   2.768677  17.225886
Pt    2.761587  23.584017   6.919380
He   12.240056  13.345548  -8.750271
Ne   12.122371 -15.267335 -12.197111
Sr    1.625480  -1.408102 -22.870071
Co  -20.335145  -1.493835  13.099952
Au   14.894797   4.301537 -12.217629
H    -4.257439  -6.408320  20.614521
Si   11.266961  13.413443  -3.886370
Al    0.000618 -21.157744 -14.590292
Sc    5.273937 -10.307977  -7.659936
Pd   13.008148  10.574332 -15.494965
Ir   15.413936  14.818245  -7.473149
Ge   14.024428  15.496179  -2.788409
Pd   -5.445552   1.010706   4.434535
Se    3.321272   5.458941   5.299402
Li    8.213428  11.396391   5.447647
Tb  -10.096839  18.888143  10.903535
P   -10.300981  -0.803793   6.782297
Ni  -10.011276  -5.224427  13.799481
Ge   13.769022  19.217583  -8.451776
I    15.680157  -2.370251 -16.961835
Sr   10.656494  15.857436   9.028189
Cd  -13.089536  12.492272   9.648367
Ca    1.291272  -0.142652  -6.571484
Cu   -2.214119   1.322591 -22.679691
Y     9.399096 -16.666094   3.182980
Ta   12.641011  -2.351286  22.309858
Ca   -8.571281  24.589808  -4.362453
Xe  -23.610858   0.074149   7.131699
Ba  -12.823403 -18.275595  -8.981986
O    -1.338790   0.484158  18.852535
Si   16.667387  10.003145  14.448686
C    -4.761969   7.373902  18.341837
Ta   14.251830  -7.147453  12.474593
Ir  -17.582985 -10.005965   3.244001
Sm  -18.367623  -8.190554  -0.184857
K   -11.414331 -11.057321  18.186011
Hf   10.713014  -6.218774   1.913464
Hf  -13.016928 -21.044110   4.522863
Ti   -4.941174  -9.898840  -7.416444
Ag    3.324419  -8.446107  -5.065352
N   -12.688898  12.711498  10.707311
Sb   20.014329   3.451864  -8.579438
Si   -0.597973   7.176665 -14.906166
Y   -19.102179 -12.410803   5.541017
Ag   -3.597186  10.563817  20.238483
Ne   14.852977   8.451432  -5.630732
Cs  -22.249217  -3.000974  -9.861800
Sb   22.658460   0.840066   0.246199
Na   -8.619611  13.435725  -6.306735
Eu    7.142782   7.627752  -3.029776
I    11.486159  -1.888760 -18.411911
Tc  -10.531572 -15.204755 -14.501182
Rb   -8.491620 -21.160266 -12.402940
At   -2.945399  21.884066  -6.932110
Ni   -7.924796  13.968336   9.196693
Be   -8.027412  20.195584  -4.994333
Mo    7.880641 -25.219254   1.068185
At   18.081028  14.321778   0.757883
He   -6.621940  17.211321  -9.066894
Mo  -11.546347  -7.398325  15.645241
Br   15.480379 -17.257606   7.360161
Na   -6.357253  11.921554  11.358865
La   -8.097828  -0.962527  14.637570
Cs   -3.734540   9.927683  22.137326
Ca  -10.920704  -8.102953   2.449370
La   -5.054192 -12.895120  19.524518
Nb  -20.887531  -3.611217   6.379914
Sn   14.526228 -13.421369   9.219152
Eu   -9.402058   4.760079 -10.899186
Os    7.593045 -21.544560  -0.620695
Bi  -10.529080 -18.409799  -9.105189
W   -23.858365  -4.056637   8.093146
Tc   18.869048  -1.129782  17.235338
Te  -13.499000 -14.651969  12.397618
Ar   -0.836526   0.788342   2.691547
La   -9.648607   8.118860   8.922446
Tb   -1.469642 -14.945625   9.769669
Mg  -22.097615  12.039053   0.901580
Tc  -10.032209  -6.068115 -10.626337
O    10.336920   9.664806  -0.062559
Pb    9.628529   9.046118  -9.931314
As  -11.554254   4.727827 -17.812347
V    19.912290  13.890061   5.051032
Po    6.549275 -19.371357  -0.666763
Tm   14.685349 -20.405136  -0.713255
Tl   -2.769805 -17.338791  -1.732333
Pd  -18.985644 -15.147880   5.593831
Pt   -6.742547  -7.715867  17.120920
Rb  -17.879933  -3.546556   5.997120
Hf    3.766724   1.943946   9.906710
Ta    9.007399 -10.770224 -17.101900
Co   -2.647925  17.409588  -3.489999
I    -7.931585   0.729449   7.345066
Be  -10.045179  -4.130638  -9.539241
Mg    9.523020 -17.694426  11.912604
Hf   -9.831624  21.364346   0.973380
Dy   13.089272   0.205935 -16.176524
Mg  -16.418908 -18.097467   4.645555
Ga   20.162694  10.455141  11.747940
Au    4.654106  -2.374854 -22.260286
In   10.638176  -9.303191  -7.654343
Br   -2.704677  -1.631728 -23.186484
Ar  -18.116821 -17.820387  -7.317788
Os  -13.489437  -5.282605  -6.607132
H    -3.138203  -4.632436 -16.492859
Pt    6.847319  -5.479406   8.113363
Ar  -13.543531 -17.888433  -8.276649
Pt   -0.150084  10.246779  22.380101
Be    6.841819 -25.145911   0.332832
Bi    2.019057   2.446732  -3.961848
F    -9.387483  -8.239617   6.824439
Na   -4.868903   5.023832  18.496441
Cl    0.204464 -22.782728   1.314225
Au  -19.147252 -10.721129   1.583538
N     1.939761  -1.750315 -18.886152
I     3.158436  14.796478 -17.958542
N    -8.309343  -2.383928  19.150967
Na   -1.549691  -9.762846  11.374653
Dy    9.891050   2.749384  15.719745
Li    0.207647  -0.313106 -24.119686
Na   -9.363756 -24.664576   0.267270
Eu   -0.345361  -7.435247  14.521454
P   -11.928363   6.522537   7.375805
Sn   -8.361834  -5.911103  20.496870
Ni  -15.234656 -21.485483   2.007716
Bi   -5.986922  -7.904599 -10.360617
C    21.825839  -6.437869   8.457869
Mn   17.655302   6.789276   0.013738
Dy   21.690049   0.256598   8.953147
Cr   10.137803  21.488717   2.827017
Hg   -5.236653  12.089210  -5.630830
Tc   16.214747   5.930762 -10.341833
Fe    2.316302  14.444106  12.754646
Pd   -9.648408  -1.602634   6.559040
Dy  -17.353711   2.640860  -7.541887
S     7.499383  -7.209699  13.905195
Er    3.014679  16.455631  -8.201035
Bi    5.162854  -4.113397   7.300724
Cr    8.770963  -8.336653  11.580471
Gd   -6.747503   6.830238   6.361982
Po    7.548040 -20.170494  -8.974812
Pb  -16.861507   1.135853   8.523411
Zn  -13.822428  11.881380   1.808220
N    -9.491684  19.464078   9.554776
Re   -0.019635   0.949986  -2.628309
Ho   11.674787   5.773911 -15.531189
K    -5.676659   8.402003 -16.532234
Nb    0.204552  21.818571  13.716086
Rh    3.255111  23.397866  -7.604300
Fe  -13.380955 -17.313964  15.293852
Ta   -4.049913  12.793931  -2.099661
B    -0.419566  -4.637966  14.826404
Nb   23.121301  -7.647843   1.972282
C    11.565438 -14.837943   6.654598
Yb   -0.770085  20.487304 -12.730926
Ge   12.232589  17.052021  15.284721
Sm   -0.876767 -19.245683  14.473793
Mg  -13.225549  16.455893  -2.062855
Ge    8.069412  22.640768  10.890145
H    -0.541146  -3.902777  20.106783
Ba   16.637625 -18.142016   5.843821
Dy   -2.867143  -6.303591  20.896223
Mo   -2.425684   1.731938  25.588083
Be   -6.900348  10.266414 -15.145404
Ar   -6.307962 -12.487968 -11.449241
Tc    9.603208   8.906054  -4.182277
Nd    0.842108  23.188909  -4.579188
Ca   -8.964610  20.182105 -13.226671
Cu   12.944447 -15.693290   3.273852
Lu   15.174269 -14.405586  15.084943
Ba   -5.075769   2.606182 -21.907625
K     1.993415 -21.134943  -8.018628
Re   21.046436  11.336198  -7.140438
Xe  -10.251857   8.465736 -22.408605
Zn   -6.010902   6.912395  -8.993163
Zr   -9.863431  -1.105930  18.776576
I    13.042234   4.317841  20.010370
Zr   13.048416  12.770595  12.193178
Pd  -17.281824  -4.390072 -12.752627
Er    9.765540   4.662782 -20.647492
B   -15.597876 -18.823489   6.744998
Cr    1.660712  11.370087 -23.551214
Mo   11.742374 -20.717384  -8.571138
Bi   -4.666367   0.475919   3.251149
Rh    2.723730  17.242508   0.467185
Ti   -3.205264  11.109453   1.566991
Ag   -5.255017 -21.600900  10.205020
Y     9.688128  -1.535380  16.060410
Ag   20.006140   2.400764  12.005179
C    -1.767953  14.796607  -9.039188
Mn   18.531866 -13.034410  12.615377
Eu  -21.235014   6.409150  -4.846508
Sb   -6.355671  -0.238528 -21.653352
In    5.572787  -8.940476 -21.287882
Ni  -10.503473 -18.919343 -11.947150
Be   -3.684963 -11.410124   0.591001
Ba    7.752538  -9.190492  20.577686
Ta  -15.034374  -2.717027 -19.667381
Zn    9.773901  14.288748   9.135319
Ar   -5.382974  -3.688535 -10.654250
Ag   17.345553 -16.053452  11.732154
Ca    6.480687  21.922046 -11.140094
Ta    8.352379  10.257028  22.203142
Er    4.727232  -9.378339 -21.782288
Ga   14.691412 -15.888429  -4.344239
Pr  -17.803502  13.755693 -10.458389
Rb   -8.870525  -6.237041 -18.268036
Tc    8.160218 -23.486371   3.922096
Gd  -10.629211 -14.528977   2.008864
Tb  -13.525006 -15.791328   7.451207
S   -19.411962 -12.778814  -2.626212
Nb    8.385320 -20.843652   4.228173
Pb    7.421039  -3.031039 -15.636144
Na    3.979666  22.632295   3.038244
Fe   13.196116  11.022652  16.151911
Po   22.898251  -1.020723 -13.661084
Ga  -22.870367   2.547243   0.321121
Mo   -9.319372   2.161193  -3.300360
Cs   -0.151486  10.999217 -11.442079
Ca  -14.724455 -16.928571  -1.048664
Pm    5.155708   6.781490  12.309712
Kr   -8.764843 -20.038801 -13.388019
Pr   -3.946039  -1.520085  18.146069
Nd    4.532276  -7.681695 -23.552814
Mg  -22.817443   9.954895  -8.720361
Cs   -5.441131  12.178749  -2.204431
Tb   18.565606   1.285362  -8.603521
Se  -10.809727  21.118048   0.523014
Sn   12.133299 -10.160490 -14.081559
C   -25.490099  -1.777936   6.776931
Mn   -0.207260  15.512350 -13.114731
Al   21.278183  -0.029070  -4.745378
Ge  -24.050672  10.171795   0.331524
Rb  -14.784662   8.111974  -9.074616
W    -3.094189 -17.389371  16.660628
Dy    1.071315   1.079301 -11.038604
Ce   15.623629  -8.668729 -12.086364
Rh   -0.316760 -22.964119   7.901747
Co    6.276306 -14.905565  -1.754837
Li  -17.336585   4.342793  -5.956049
Ta  -16.181255   1.773037  14.327696
Mn   19.672363 -13.200684   8.163063
Ir  -23.189690   1.319268  10.461053
Ar  -12.016874 -14.574399   1.927697
K    13.576559   5.389475 -19.425545
Eu    0.116678   3.563809  -5.497692
Sb   -8.758275 -16.212991   2.860619
Mg  -17.965596  -3.243542 -16.886726
Co   12.310343   5.622548  15.287346
Hf    7.752140   1.577660   4.797433
V    12.123003  -5.939438   1.645488
Sr   21.730766 -10.729854  -3.670764
Co   -3.886163   5.347544 -11.429915
Ho  -11.652838  -7.327429   5.283964
Sn   13.941251  -4.182848  -3.119655
Ho   -9.553980 -22.303826   1.415279
Ge    9.520234   1.220187  -7.508800
In   -3.019363  12.370133 -13.588347
Ga    6.925552 -13.007619  21.178742
Sr   14.802526  18.162412  -0.463373
Tl   -6.374867  19.773885  -9.312053
Na  -10.507797  -1.566602  15.870668
N    -7.464239  -2.863193   7.471219
Ba  -22.970498  -7.218277   6.189622
Cd   12.741743   6.294160  20.779355
Fe   18.291313 -12.571088  10.260222
Be   14.148782  18.060012   0.313055
Er   -2.194148  14.785567 -14.877645
Pb   -7.461954  -7.360906  23.783472
S    -6.969997  -8.369403   5.022560
W   -10.585997 -11.784583  -6.440558
K     8.787133   4.611284  13.429964
Be   13.389430   6.022064 -16.040313
Ti    4.458753 -14.668416  -6.910611
As   15.516540  -9.263267 -14.810274
Gd   12.295793 -14.503344   2.215640
Mo   -1.715940   7.476746  -8.678722
C     6.703061  14.937956  13.452106
Y    -6.434700  20.180919 -12.574650
Ag    9.525349  -1.871549  -4.608192
Y     5.214819   0.036394  21.039107
Eu    1.360962  10.915009 -16.859014
Tc   25.435745  -2.300518   6.576179
He  -13.028498  10.756982 -15.531914
Tl    7.232354  -1.833721  13.771414
W     2.164105  19.152503   2.702324
N     5.044022  -1.320783   5.526479
Zn   19.850873 -14.252886   3.286724
Si    2.817327 -15.053066  17.601328
Tl    7.795348  -8.714197  15.939286
Mo  -12.204759   7.913260  -8.951272
Sr   22.350124   4.344088  -9.256754
S   -15.929110  -5.103213   9.856164
V    16.648520   0.805085  13.948957
Ru   19.754719  14.445005   8.329007
P   -16.802176  -1.044312  19.159631
Cd   19.357390 -10.009274 -14.209394
Yb    4.351447 -14.227350  21.616174
Ho    1.728545  15.874936  20.165434
Na   12.145632  -4.360888 -22.169548
Sm   -3.466062  18.926343  14.561154
Y     2.091407   0.347580   8.951271
Hf  -16.779961   0.233351   0.892102
W    11.310398  11.451890  19.949996
Cs   -9.419262  -2.420850  20.988112
Er  -20.286299   0.024778 -17.018440
Ni  -10.426303  19.608931  -8.562789
Ba   -4.317132  -2.548456  17.966713
Ge   -9.675850  13.405696 -10.308520
Se   -6.417686  11.650039 -14.080724
P   -13.989697   7.420742   3.609184
Kr  -16.016355 -16.910204   0.378337
P    -0.316843 -25.709832   6.178118
C   -14.355155  20.335933   3.596580
S   -15.425426  -3.825169   9.590483
Os   -8.986189  12.826870 -11.939337
Bi    3.184223  10.378870  14.012527
Eu   16.365252 -14.048793  -5.546738
W    -2.068926   9.542702 -22.212365
Kr  -17.169828   1.972846 -16.308930
Rh   10.127838  11.740578  -2.066820
Os    0.206457   8.138697  -0.516859
Co    5.128544  21.262658 -10.275913
Cl   18.786834 -16.299985   1.072079
Ce   11.933530   3.625673   0.139023
Pr    8.119615   5.067538  13.395775
Co   -1.280019  12.635906   2.086900
Al  -21.580960  12.350787  -3.207202
I     4.398470  16.886143   5.238133
Tc   10.295144 -17.451058 -10.122657
Ir    7.157959  20.162082  13.208587
Nd    8.104718 -15.753359  -6.533991
Ag   23.661263   4.492933 -11.080453
Li  -17.515411 -14.051694 -13.938977
Be    0.158466  -5.241506  -8.792502
Po    7.781408 -11.230027  -0.691708
Ar    6.270016 -14.665289   9.766022
Bi    9.575772  18.786357  -0.263310
Gd   -1.906070 -23.172022 -10.576675
Ca   11.903524  17.367618  -4.733270
Ir   14.407206  -5.012968  -9.788231
Zr   12.639650  15.095622   5.838502
Yb   14.477156 -19.607425   9.885914
Ru   -0.259045   0.761328  21.696422
F   -13.129063   6.262167  -3.232211
As   -5.573573 -11.019379 -15.876048
Dy  -13.627549   2.013288 -15.495601
Co  -10.794903   0.544816  -7.671152
Nb  -13.043074   8.142531  12.592779
At    9.483881  12.288684 -18.826344
Cr   -3.004769  11.356399 -20.989655
Zr   -1.628318   6.574108   6.469284
Mg   -0.693962  12.813927  -4.511576
Ag   11.338754 -22.436087   1.717752
Eu   10.726405  23.645064  -1.553620
Rn   18.966130   8.554589   9.293951
F    -4.749899   6.820089  16.550978
Lu   21.271065   7.329197  -2.931976
Ba   -7.227988 -12.266083  13.022129
Sc  -17.262390   5.879370 -18.485060
H   -14.595651  13.948994 -10.324123
Pt  -14.602316   8.554865  -1.493103
Sc   17.290366   0.029460   3.945238
C    -6.586849   9.433412 -15.793951
Kr   -2.702265  -6.261251 -24.414651
As  -13.238726   9.099641 -15.364697
As    8.158966  -3.689441  11.998889
Mn   -4.653123   1.850246  22.574369
Ni    7.406833 -18.174420  -9.017967
Rh    4.989316  -5.730579 -15.164260
Rh    6.538624   6.513341 -15.222032
Pt    9.478521 -21.298669 -11.595816
Tm  -10.886956  -0.625795  18.824925
He   11.623502  -3.075077 -10.328217
At    0.718815  -7.437043   4.845474
Tm    2.927462  -8.197176 -24.902806
Ge  -14.408341   6.463615  -1.898330
Ca   15.994984  -7.677574  16.968304
Er   10.827450   5.898708  -0.282735
K    -8.912935 -15.711424  11.738644
Zr    9.182540 -17.182663  -4.383824
Rh   -1.010743  -2.856287   3.785406
Er   26.065580  -3.167453   2.171081
P   -15.481356  -7.280577 -15.232353
S    18.805152   1.492982  -0.025277
Sn   -0.686870   7.056749  12.286943
Na  -18.578353 -10.771687   4.820677
S     5.977978  17.638696  -4.218525
Pm    3.438132   8.278627  -2.788219
Bi    8.645195  19.967200  -3.747095
Tm   -9.398778 -19.603917  -4.474758
Hg   17.271655   7.466872   4.839640
Tb   13.670164  -9.247146  18.251674
Tb    9.520557 -16.891594 -17.595988
N   -11.236923   1.433885   9.970665
Cl   11.146545   0.084125   8.026668
H     0.325214 -20.622582  14.870214
Ho   16.110536   5.094674  -6.073174
Ar   -0.411234   9.294556   6.732484
Ag  -23.849758  -8.862690   6.183020
Se   -4.256054   4.082800 -13.727476
Ir    7.516617  10.552060   9.357493
O   -10.634603  15.725533   7.504791
Cl   23.103340 -12.110596  -0.333578
Cu    3.226031 -23.939744   8.606842
Sb    3.126177 -11.455107  -7.678732
Po    9.417384   7.089137  10.294926
Lu   16.969841 -14.833507   8.029019
P    -9.418359  -1.007876   3.043666
Zn   13.286310 -18.581957  -3.999671
Co   11.881211   5.112355  14.674842
F     2.108216   2.707244   6.046237
Br    2.834336  12.392480  13.761629
Xe  -12.908842  -1.808751  -2.223693
Zr   -7.645461 -20.679424  14.347592
B    -2.687814  -5.502181   1.749873
Eu  -16.500403  10.803608  13.484099
C    10.282894  13.779491  10.982689
Mg   -0.286713  12.817666  -0.315351
La   14.935424   3.636715 -17.196546
Cl    1.845102 -15.037717   9.921272
Te   -7.064803  -8.781311  -7.833165
Au    6.104244 -11.239569  21.300982
Fe   -4.248663 -18.480430  -5.464888
Gd  -13.403245   3.656020  11.655284
Ru   13.043019   7.080112 -17.291546
Bi   -5.234727   4.409544  -5.839292
Co   -8.218252  -2.950025 -14.694707
Sb   10.330716   4.165702  22.962595
F    10.886926 -11.792461 -20.174301
Re   20.385916 -10.408477  -5.478847
Zr   14.075792  11.349209  17.288600
Ba   -3.706829  -5.200957  -9.907333
Sm   -4.188151  23.439914   1.436035
Cs   -2.634770 -22.918269 -13.054819
Be   21.549676  -8.990084  -0.020144
Lu   11.350682 -16.687835  15.167442
N   -13.944830   1.616471 -10.827776
Cr   -6.141992  -6.676737  13.030940
Bi   18.017354 -14.178614 -13.052619
N   -12.617900   4.131435 -15.576968
Li   -3.420793   2.634957 -25.342294
Mg    4.971077  10.403678 -15.092297
N   -11.373675  -2.693375  -7.244121
Co   13.777225  -4.365742   3.241450
Rb    6.966101  -0.758496  12.515323
Sc  -14.041867 -11.344444  -0.222989
Pb  -17.174176   5.344830  -8.149995
O     6.749125 -10.525268  -6.439827
Cl   18.233702  -9.338334   5.052586
Kr   12.626213 -19.375995 -13.018563
F    10.695046  18.963487   1.028309
Ge   22.607744  -1.767650   2.038446
Zn   -2.165221  -5.771771  12.237852
Kr   16.522899   1.609784  -1.167378
Pt  -11.789369   4.560871 -11.771550
At   -3.024710 -13.671531 -18.996009
Dy   -9.691437  -5.722490  13.044846
Tm    0.822564   4.424446   9.242623
Bi  -14.143088  20.093316   5.872923
Zr  -11.642994  -2.232262 -10.032140
Nd   13.989899 -10.505244   9.304120
Hf   22.018839  -0.484792  -1.842868
Tl   -6.535493  -6.879348  16.985925
I   -20.384498 -13.438778 -10.331609
P    -3.978291  -4.704555  13.543697
Ni   21.490085 -12.483923   5.050155
Pm   -4.959824  14.987016  18.459339
Rb   -4.150411  -2.512405  -1.749143
Ir   10.777752  -4.227876   1.553674
Rn  -15.730611 -16.760714  -0.711113
S   -13.960475 -12.287199   4.015267
Ir   19.603504   3.262759 -12.707531
Mn    3.469885  16.436255 -15.446867
Sm   17.569667  16.610864   1.885181
He    4.380206  24.632585   7.639285
Kr   -1.703853   1.949326  -0.312488
Pt    4.220079 -14.098191  18.993683
Li  -19.133063  11.786525  -8.039598
K   -21.151565  12.597765   4.079965
Be  -22.070488  -3.113534  -7.873665
Mn    6.447888 -18.440289   8.627353
Sr  -10.426253  12.165046  17.459348
Co   -9.467449  -2.428306  12.708859
Pt   -5.140559 -24.728869   6.598894
Ir    1.634337  -5.839158  14.052981
Bi   18.702273  -4.756217  14.985467
Tm   -5.645807   7.018735  10.134533
Be    4.593389 -15.756516 -14.884619
Dy   16.944682  -3.332612  17.252611
Se   -3.899263  -8.602477  -8.812464
Ne   -1.301475   5.097939  -0.514635
Co   -7.934625 -14.365082 -15.633586
Nd    9.575779 -20.913309  -9.049347
At    0.588452   5.216518 -23.050146
Pr   17.519970  -0.839417   2.248763
Ar    2.990296 -11.578155  19.142461
Se  -22.130014  11.863851  -8.874979
Cr  -16.359245   4.794361  -4.280352
Y    -5.809161  15.953011  11.212271
Ar   11.727313  19.334171   6.130409
Ce   -9.141803   0.411858  18.355936
Be  -11.360912  13.530930  15.276285
Rb   25.078889   0.721803  -4.615264
Fe   -5.481341   6.518277 -24.633219
Br   17.017025  -2.159747  -0.868544
Sb   -8.759353  11.390245  13.548324
Sb   15.109659   4.579104  15.465612
Cr   -8.114294  -4.700075 -17.105121
Tc   10.400501   2.529913  23.824972
Nb   -9.936130  -3.323331  -0.677145
Tm    3.863112 -13.812515  -2.434888
Pt   -6.686572  10.082308 -17.232791
Sn   -9.625485   4.573619  -1.092997
Ni    5.651116   2.592127  -0.872279
H    -9.617037 -10.153596   4.035759
W    -1.235956 -19.438045   2.912649
Mo    2.550059   0.192896  18.093883
Gd    1.511537  17.063523   6.716169
Nb   -0.751991  -8.347623 -21.946358
Se    2.302747  24.462291  -9.481872
Rn  -17.882763   1.373161   5.396380
Cd    5.308299 -13.169708   7.253314
In    4.587224 -16.407522  -8.161810
He    1.882959  16.192250 -10.163234
Mn  -15.960601 -10.765013  -5.054859
Ru    3.428075   6.297121  24.190895
Br   -3.156588  13.680750  15.368433
Na   17.599253  17.038412   0.599270
Rb  -17.266080  -0.089793 -13.473520
Cl    6.493058  -6.166621  -6.892034
Hg   -9.298076 -10.051827 -12.300925
Ar    9.118916   3.280360  21.338246
Cl  -22.477456   3.910624  -5.921341
Yb   -9.211071  19.243520 -11.088336
Bi    2.658652  24.437625  -5.515221
S     4.233239  -4.499808 -24.468254
At  -19.239821   7.624203   4.111608
Sb   15.747168   7.652167 -13.089691
F   -14.955854  -0.815383   1.320666
Rh  -12.491541  13.172413 -18.107454
Te   10.556884  -8.058413  12.863909
Li    3.916974   9.194459  17.235237
At    8.778925 -10.433306 -18.641186
Ti   -5.756786  -7.143378   4.328110
Eu  -13.201322 -14.925985  10.168808
Eu   12.226106 -10.290664 -17.354793
Si   11.171070 -23.735559   0.085593
Au  -13.532686  18.123858  -7.272254
Dy   -2.437615  -6.218358  17.965543
Mg   -9.192044 -22.046213   4.176913
Eu   -1.954277 -10.743459  -6.747121
B     5.290859   5.728785 -14.532715
Zn    3.957401  16.723653  13.238458
Fe   -3.094297  -4.367442  17.563464
Re   11.904956   2.321735  18.016594
Mg   -9.929083 -16.858809  11.800401
W     5.857535 -19.412048   4.283974
Ir  -15.300043  -4.192357 -20.028547
V    17.998326 -15.226882  -1.041242
Ni    2.498382  13.097613   3.772575
Mn   -6.540699   5.360865 -11.474449
Dy  -12.798647  11.102934   2.063713
Cu   -4.716019   9.500984  19.589827
C     8.315223 -13.354917 -19.127461
Sb   25.114365  -5.048761  -1.499181
Pm    3.910060  18.530625  -3.044749
Mn   -3.997772 -14.140696 -13.830977
Cu  -18.647539   8.910581   6.642546
Tc  -21.440321  -1.196348  -8.397424
Pb    1.181412  11.691080  -8.466310
Hf   -1.576401 -15.599729  -7.463951
Gd   10.619732 -15.718403   1.903195
Se   -8.961935 -21.794353   6.280945
Ce   -7.158922 -21.058696   6.528024
Sm   18.524163  18.788318   2.469156
Tb    2.849947   7.976937  19.158448
Os   -9.427526 -17.962554 -11.064173
Cl    0.498732 -11.512212  12.268616
Br  -10.345874  -9.547566   0.329520
Ba    1.058462 -11.905020 -10.613827
As  -15.080868 -13.178917  17.658655
Er   -1.047435  11.231649  -8.365442
Ca  -13.514780   4.887472  22.173641
Po   17.923987 -19.201928  -1.433508
Ge   -0.668653   7.381747  13.300486
Gd   19.995406  16.022706   2.983494
Se   -5.125276   9.885677 -16.451571
Au   13.797958   3.135103  -3.340332
Ag   13.338254  -3.827215   8.807406
Tl   11.503541  10.671461  10.464607
N     3.832060  -8.776251   3.919659
Nb   -5.632613 -19.093712  -0.209725
V    12.705038  -4.534697   2.751081
Ho   22.925726   0.634891 -11.130226
Ca   25.308189   0.253968  -3.343673
Re    2.567796   7.302712 -22.178119
Xe    4.140712   3.655146   7.139416
Mg  -17.168982   1.054315  -3.418761
Br   -7.188873  -4.821996   2.567616
B    18.029862   6.593191  11.605170
Hg    3.114128  22.999601 -13.123671
Y   -16.166413   7.974182   2.837280
Sm   10.496943  -8.124956  -5.438705
Pd    5.537731 -14.901211  16.527577
Se  -13.976429  18.750424  -9.481847
Xe   -3.489015   3.456023  -8.247222
Hf    0.794067   6.407711 -16.883692
C    -8.696065  10.585144 -11.800289
Ti   23.844176   0.678574  -7.788322
K     3.214572 -17.024399 -12.008164
Lu   12.631524   2.575972  -3.625301
Ge   15.200370  13.931102  10.362270
Rh    0.832281   2.292295   4.890531
Bi   17.201566  -0.873209 -15.329561
Ar   -1.903569   7.297700  -3.658663
Mn    4.226937  19.493994 -10.174178
Br  -17.996654 -13.589787  -8.995868
Gd  -11.390870   2.921145   1.073092
S     9.590352  -4.874172   9.423158
Kr    5.438687 -11.123476 -20.129590
Nd   -0.219623  -2.173834  10.394459
Pb    2.884143   8.323939  -6.998700
Pm    2.059786  25.721164  -2.844836
Pb    3.197579 -20.769224  12.545646
Sm  -19.560515 -17.024020  -3.885420
Ho   17.971357  11.294550   4.569690
Mg   -2.138119  -6.932703  -1.191600
As   10.569038 -13.860654   9.960340
K   -21.814087  -6.559462  -2.460245
Ge   10.975865  12.643212 -14.420955
Se    2.828142  16.806667  -7.023604
He    1.376481 -10.074016 -24.552415
P    -8.997184   4.025344  15.646601
Eu  -22.995840 -11.808933   6.335203
Br    6.618675   3.226749  -3.552320
I   -24.616545   2.191655   8.332889
Ru   -1.096493 -24.743549  -0.218150
Rb    6.279466   7.584059   9.315333
N     6.774480  12.894673  -4.437093
Tm  -10.034757  -0.936821  14.488380
Y     9.515521  10.114137 -17.894239
Ta    9.497471  -5.288718 -17.348170
Cu   13.133141  15.560540   7.403831
Li   20.999110   2.529264  -6.974696
Cl  -15.895334   0.141929  -5.026638
Er    4.489633  17.627064  13.151767
Pr   19.992715   8.215280   9.208618
Po   -5.815438  -9.387144 -18.350503
Os  -24.760657   5.243660  -2.718138
Ar   -8.834577 -14.774213  18.527065
Ni  -23.933925  -9.064213   7.183429
Pm   17.668325   2.190543 -16.594308
K    -2.475606  10.549270 -16.997016
Rn   11.997428   8.518783  20.428576
Te   13.038594  -9.769098   0.696395
Sc   16.577716 -20.087479  -5.891176
Ce    0.629044  19.222761  -8.275001
Cs   -3.481237   5.528259 -25.478486
Sm    5.567722  11.576059  14.320722
Tb  -18.471105  10.162060  15.237961
Dy   -4.703661  -0.390784   9.167546
Pt   -3.039345 -11.367637   2.972336
Cr    8.607256  -7.453547  12.530750
Mg   -6.427974   1.441727  22.734255
Br    8.792939 -24.222313  -0.981976
Gd    9.817222 -19.175896 -11.120282
B    14.700545 -21.585506  -1.475566
W    -3.158205  -7.558691 -12.456653
Nb   -6.084283  -2.863925  -9.875792
Br   16.878183   4.060417  -1.115998
Mg   11.800829 -11.635555 -16.156320
Ar  -17.775960  -2.365307 -15.833485
Ca    9.960342  -8.445138  14.072828
W     4.837448  18.401924 -16.687125
Yb  -22.537156 -11.292767   5.070294
Hg  -18.155953  14.787016   5.963682
Tb    9.703282  -7.543000 -23.723393
Gd    1.190612  -3.142081   9.119673
Si   -5.217302  21.333123   8.785421
Hg    2.815682  -6.667358 -25.724563
Tc   -7.052726  11.547955  -1.708628
S     0.998480 -15.119024  -0.904951
Hg    0.417762  19.321280   6.843525
Te   13.711143  -8.915277   7.583616
Re   13.596263  12.242728  16.328147
Au    8.111611 -11.209825   4.463500
Ni    6.478590   9.289263 -16.946842
Zr   15.924058   5.987760 -16.838900
Cr  -15.439545  14.809461  -7.570229
Sc  -10.146816   8.847789   9.727457
Sn    0.937333  13.554921  15.667997
Tm   10.967917 -10.993257  17.359945
Zr   14.989249 -19.545887   6.947566
H     1.403523 -18.428439   3.740653
Ge   10.911195 -17.350663   5.632617
Ir  -18.705640   1.376769   4.169744
Li  -19.946337 -13.190686  -5.600387
Ni  -13.999620  19.289662   1.335761
Sn    0.719238 -19.633346  -4.086753
Ho    1.315190  19.262679  -5.702083
Rh    6.557978  14.934698 -19.500831
Ba   -6.754804  12.850016  20.210561
C     9.416545  19.483980 -11.831630
Rh    4.218738  24.220929   1.712085
H     0.320386  -5.103507 -18.424955
Er  -16.532103  -1.232591 -12.210204
Pd    7.210528  14.208852  20.061420
B    12.994270   1.009944  -7.281653
Ge   10.543931 -18.542860   3.565595
Dy  -21.280052  -6.712943  12.125200
Au  -14.846070  -6.273531   1.834262
Rn    7.722914  -8.071187  18.995975
Si   -0.731571  23.958053  -2.028198
Ba   18.395638   6.726337 -16.166028
Lu   -0.641192  15.376927  11.881519
Tm  -18.222345  -0.267632  19.224384
Ag   12.821773 -16.552350 -12.835616
C    -1.091482 -20.219042  -7.512717
Pd    0.251157  17.786139 -16.522050
Sc    3.623217  -8.797803   6.921950
Sm   14.281925 -10.767427  12.624181
B    10.980921  10.074785 -12.031765
Na   11.214778  18.949503  -5.582818
Re  -15.685198   6.823548 -19.251748
Tl   21.384049  -2.325878   5.276901
Xe  -13.194243   3.795877  -8.961002
Hf    0.139644 -23.130814   3.844146
Br   -0.199902 -17.289234  17.392052
Xe    1.442395  13.364507 -11.250720
Dy    1.412978  24.888571   3.968453
Hf   -5.748599  12.132798   3.973005
Ni   -6.422119  16.353857   7.241820
Cr  -12.727926  -4.582711   7.698937
Ho   -8.905464 -12.353009  13.292708
Sn    5.953702 -19.618512  11.920765
Rn    9.862960  -7.304190  11.635669
W   -16.019961   4.645253 -20.239744
Mo  -17.286066  14.101691  11.840951
Zr   -4.513753 -18.255450  12.743342
Bi    9.519201   5.455770 -21.966480
H   -10.077229  13.448536  -4.971535
S    -8.811973  18.751269   5.443080
Tb    7.785735  21.328425 -12.109532
Ne   -5.893795 -13.300823   4.857391
P    -7.452617  -7.298633  16.002118
Pr   10.707354  22.119342  -9.457376
Ar   -4.825948  10.805111   8.797434
I    -2.565287  19.854004 -13.083889
Sm    9.889552  -6.919402   7.981906
Cu    7.730724   4.333051 -24.335590
Ba   -9.494917  -8.940706  19.395114
Hf   19.663951   4.224332  16.035331
K   -14.691696  -1.647289 -16.623918
Pm  -22.508299   2.461036  -9.597994
Cs   14.949185  11.244164 -17.372010
Ag    6.209014   4.541075   8.697432
Sn    1.518388  11.074174  10.861777
Sb   -7.814689  17.884515   3.621939
Ba   18.627890  -1.701790   9.565425
Ta    2.363858  16.293811  -6.249669
O   -19.560615  -9.431683  -1.673080
Cl   20.010864  15.466448  -6.194166
Ni   11.608883  -3.541389   5.838170
Co  -11.798054   0.291229 -20.173961
W    -4.136474  14.463269   9.048665
Nb   10.483100  20.942303   9.860723
Er    9.954400  -6.927838 -12.658942
H    14.116261  15.509127  -6.192634
Tb    2.803538   7.562821 -24.831071
Ce  -25.254614  -3.404555  -3.325594
Tc   -6.066261   2.516245 -16.273323
Ru   14.510505 -14.404855   1.193256
K    -2.768839   3.455737 -25.997546
B    20.938272  -0.102813  -7.431901
Mn   -9.027203   7.055636   6.310893
K    16.507816   7.060958 -14.516490
O    18.801002   2.749771  -2.463807
Cu   14.013082  -2.366120   1.712434
Fe   17.414702   9.919602   4.296099
W    14.619828   8.230688   9.880553
Sn   -1.924005   9.251576  12.048325
Be   -3.626160 -16.565622 -17.338305
C    -1.446183  -4.338224   5.177921
Lu  -10.242022   4.623696 -15.439104
C   -11.372493 -12.915381 -19.662924
Kr  -11.537677 -11.882560  -9.395088
He   11.940583 -14.540204  -2.611265
P   -12.979389  -8.615519  14.609527
Y     8.191532  24.605253   3.804609
I    17.706521   4.105617 -15.788063
Zn   18.948418  -1.154915  12.810862
Xe  -18.592755   9.528240 -12.021267
At   -5.983309   2.459327 -20.665719
Yb    0.726532 -20.448516   5.950774
Hf    3.382986  -6.502305  20.726623
Tc   -2.154063 -20.383708  -5.179019
Br   -5.902374  -9.584538 -11.290493
Be   17.894890 -14.364158   9.435729
Ta    2.121854  18.440102  -6.653046
F     1.376705 -23.259815  12.405678
He   10.935056 -22.449107  -2.407830
Ni   14.474597  -4.360135  10.196161
Cu   23.737353  -2.040022 -11.818076
Ga    3.591600  18.893934  13.595831
Sb   -9.161335  -3.602993   8.365010
Au    4.921038  13.938211  16.762659
Pr   -4.312153  12.828051   9.479111
Pb   11.718618   0.821866  20.762545
Ce    9.210873   7.333778 -19.180869
At   -0.901236   4.031767 -19.886603
Hg   -7.511192 -17.394006  17.403699
S    11.597887  15.468987   1.735969
Os   13.862972  -3.571761 -22.107267
Te   15.554206 -14.322737   6.656399
Sc   16.162900  11.946881  -2.172284
Ir   -6.819976 -13.597808   6.705238
Be   21.164188   6.905497  -4.702940
P    17.599748   2.426244   8.126708
Na   -3.725425  -1.239407  15.212049
Hg  -20.435983  -8.688097 -12.579223
As   -7.210737  24.573209  -0.317082
Sm   11.613490  13.584276   4.767518
Mn   -6.644415   5.737437 -24.535610
Si    6.780973   0.495206   7.722145
Lu    0.758449   5.358831 -15.542617
Y   -24.230813  10.258013  -2.901910
Cl   -8.217507  13.060812 -18.150170
Ar  -22.876709   4.306330   4.499331
Tm  -17.054392   5.176529  12.286190
Te   -4.215336  10.719573   2.132031
Li    6.824426 -13.569735   0.048524
N    -6.041351  10.125485   0.533053
Na   -4.362205  13.071496   7.216678
W   -20.775719  14.994416  -2.993341
Sm   15.089580   8.861568  15.404758
Au   10.848265 -13.769294  11.802696
Rb   18.500842  -1.964678   0.212758
Sc    9.316765 -21.938563   4.204101
Rn  -16.968053   3.941554 -19.610739
Er   25.411394  -3.940243   3.627190
I    -8.707172  13.188025   5.809428
Hg   19.131589  -6.611789  -8.109249
Hg   -2.692346  14.508467 -20.175532
Lu    2.672502 -22.576281  -4.325186
Br  -18.265013  -7.961223  10.024095
Tb  -18.004599  -3.838463 -15.499448
Cd    0.345881  -6.871686 -22.986743
Er   21.569761  -7.264348 -12.863938
Zr    2.454502  -8.757006  -7.391844
P    -7.629884  -0.670016   2.825857
P     0.408503  -9.027593 -16.382695
Tm   -0.121378  11.698542  20.296682
Zr   -8.258599  17.209698  -0.148426
Y    12.557882   1.424555 -22.285274
Na   -8.839120 -15.408270  -7.164626
Rb   14.774590  -0.535685 -16.453232
Li   25.253944   1.270234   1.069999
Rb   18.186377 -11.381504  -5.236067
Mg    4.251642  12.482074  13.544431
La   15.189995  17.006169   7.402220
H    -9.089336  -1.221241  10.551859
V    -8.827532  17.328329 -16.612565
V    -5.361076  -6.987334  -3.183081
Sr    4.815581 -22.936281  -3.317932
K     8.603619   1.490504   4.452260
Cl  -17.904240  19.022232  -1.851769
Ta    9.250555  14.469768   7.212729
Ti    9.093294  12.711145  -6.116444
Po   11.019640  -9.788361 -15.556359
Al   14.415209   2.696481 -12.640470
Pm   18.257595  -2.981989  -4.314906
K     3.981023   6.242387  -0.523729
Na  -13.068724   7.220048 -20.253787
Tb  -19.920355 -10.981993  -3.061027
Te   -7.742178 -10.655882 -10.967542
Br   23.015875  -0.979601  -2.761998
Ta   18.091671   9.800406 -10.103161
Br  -21.801972   4.955427  -6.434923
B    16.027363   6.887497 -11.457598
Xe    2.046459  10.929465   6.087132
Pb  -14.287205   5.554296  -2.532275
Cl   21.769839  -1.736328  12.410211
Kr  -22.703889  -9.300020   1.097124
V    22.990595 -10.685997   2.758219
Ho   -3.727316  -6.630918  -4.698624
H    17.259903  18.497901  -1.680409
Be    0.864369 -25.952773  -2.643467
Cu   -8.580670  -3.306070  -5.188143
I   -13.247548  -5.577105  -0.856084
B     3.696888  11.622929  22.809163
Bi    1.333781  11.780105  -4.509196
Kr   -4.193255  23.411522  -8.559396
Ru  -22.881448   4.144326  -7.264602
Nb   -4.021664   8.975223  20.883587
Cl    3.761459 -10.745043   5.749643
N     8.431305  -1.550792   2.129958
Xe    6.872840   7.143018 -17.029009
Mn    3.312151 -13.931146 -18.058370
Br   -7.296769  19.993304   9.390721
Ni  -13.521635  -3.436524   1.521852
Eu    4.065437  11.451935   8.572783
Ti    0.381805   6.766417  -3.067799
Au    9.720300  11.334489   9.323487
Ne   -4.241440   8.659083  -4.174520
Hf    1.677349   8.395806  20.079647
Pr   -6.731291   0.753961  16.022953
Xe    5.625819 -18.617022  11.557704
Ge   -2.408530 -21.622547  -5.129634
Pm   -3.123462   2.761173   8.943780
Xe    8.367003  -7.158649 -19.189791
F    13.377955 -14.405463 -15.813806
Tc    4.966770  -8.526067  24.272452
Tc  -21.597428 -12.165373  -9.266278
Cr   14.559759  20.203228   4.321561
Gd   -3.131094  -9.391299  21.212617
Po    6.026096  -8.154731 -12.642147
Tc   22.569247   1.355494  -0.367288
Nb  -18.734993   0.917260  15.721559
Bi  -11.493608  -8.620101   5.163681
Cs  -16.595020  15.415994   2.190100
P     7.186947 -21.852886  -7.827620
Al   -0.792011 -17.438485  -2.661529
Po  -20.205877  13.435295  -5.784848
Ga  -16.572388 -13.016328   4.782374
Cr  -19.926775  -2.840533  -1.887886
Hg   15.410470  -6.415533   5.334940
Tl   -3.284594  -3.233462   3.994624
P     4.619884 -21.077834  -8.359333
F     2.231591  -4.025560 -18.973672
Tl   14.625904   0.366901  -9.244336
Cu  -12.658869  12.517540   6.723424
Be   21.006768 -13.550602  -6.810363
Zn    7.343364  -9.153528 -15.032109
Cd   21.770742  -8.453430  -1.343828
He   -9.196356  -3.201073  23.691120
Gd  -11.703265  -6.297668  13.074278
Rb   12.854283   3.091183  -1.001397
Al    4.694949  24.668262  -3.816950
Ag   -2.214058   7.627918  10.635179
Hg  -16.761480   7.103769 -18.828320
Si  -22.049644  13.379994  -1.652742
W    -6.527421 -16.333167 -13.405865
He    0.249149  -4.639948  22.963299
Hg   -3.657207  22.011180  12.233842
Te   -2.529389  10.256646   6.993377
Kr    5.670053   1.541781  22.064786
I     6.412036 -14.099414 -20.832744
Tl   -2.031359   8.479065 -20.252961
Rn    2.550807  12.998968 -23.078678
Te  -24.423230   6.477975  -5.158264
Hg   -7.825099  -2.112300  -0.408173
Ar   23.636762   0.543677   8.890491
Ru   10.820178  21.130915 -12.110695
Ag    0.653935  14.714332   1.758756
Zr  -14.040080  -2.165317  -9.811161
Cr   15.793384 -10.320435 -10.694577
C    17.341655  -0.237939   8.917350
W    18.946335   5.612354  10.522858
Au   19.436393   4.912244   5.658484
S     9.966505  13.395784 -11.261136
Co   22.484201   1.604109  -3.813206
Dy  -16.540224  16.447523  12.490969
C    21.576278  -7.367638   6.429022
Si    9.644192 -12.421172  19.256816
Kr    2.082014 -13.078118  -4.766034
Li    4.410134  22.904408  -8.233956
I   -23.357516   9.663025   7.172233
Ca  -22.405327   7.827912  -2.992352
Ag    8.456821 -20.066786   2.073730
Au   11.836197   5.873240  12.701473
Zr   -0.479836  19.222810   9.435474
In    7.346459   3.739896   4.737456
N     0.941167  15.033454  -8.874855
C     4.693086  21.107668   7.124753
Xe    8.279298   4.567615  -7.811841
Pb    6.335175  11.148735   7.378855
N   -19.400980   4.694950 -15.178621
Cr   12.288277  -6.563640  12.486640
Re   -9.817401  12.827768  19.458415
Yb  -16.920700   2.127237   6.067668
Ru  -16.560625  -8.172146  16.719896
Sr   -4.827298   5.899507   5.089813
B    -9.374399   5.849284   3.135171
Cr  -15.454912 -10.135889  12.928354
P     5.988216 -10.032690  16.576803
He   15.786112   1.454672  -2.444951
Fe   11.195674  -5.043112  -0.023603
Ta   18.863246   2.891880   9.867230
Hg   21.317722  -2.455771  -8.862463
Lu    5.657772  13.445695   3.929107
Ho    4.536794   7.601415   0.520572
He   10.923710 -19.576448   4.128844
Sm    3.725749   0.888824  -6.357946
S    14.571164   2.405261   5.527557
N     2.298011  12.722452  -1.299996
Eu    5.341077   7.421472  24.149423
N    20.542536  11.548521   7.020942
Sr  -15.549753   6.007453  19.301854
Cl   -6.316483  -0.956504  22.451052
Pd    5.975042   2.710897 -13.754344
Ag   -5.185279   1.062850  23.873733
Eu  -13.507468  -6.785141  15.934114
Li  -15.100757 -11.395326  16.024753
Po  -13.893487  -2.387556  10.691123
Ni   -1.620536   5.674134 -24.779547
Pd  -17.218177   5.543633  -0.993053
Ho    9.630077  -1.108159  14.058594
Lu   -1.201346  14.921205 -15.808899
F    -7.501444 -13.919904   2.722057
V     8.066772 -14.245282  17.413394
Rn   -3.986963   8.433228  18.179889
Ir   -0.592160 -20.456947   0.409205
Bi   24.135167  -1.004144  -3.445779
At  -18.684051 -15.374871  11.247976
Fe    2.057113 -23.604556   1.801272
S    -0.856404 -20.070219  11.664680
Rb  -11.223366   7.610863 -12.330895
Tl    4.334763  -5.914531  15.871318
Nd   11.360032  21.839036   9.964829
Pb  -15.722955   1.622182  -4.306445
Sm   12.907663   8.544395 -14.624339
Be    8.726178  -2.312909   2.914934
Tc   12.264123  12.502647  15.852001
N    14.647841  15.991627  12.008442
Ba    5.325730   0.053399   3.270173
Rn  -10.282841  -1.133583  21.265579
Zn   12.278415  -8.514234  -2.225321
Ti   -2.803764 -16.722410  -8.341178
Cl   12.188405  -6.715857  14.732145
Sm   -5.637380  15.374196  14.088979
Cu   -7.370939  15.145066   1.878254
Rh  -13.820804 -21.380717   7.077258
Nb  -20.472941  10.083708   9.538098
Xe   -2.279905 -18.356979   0.108051
Pt   -6.109726   1.492913  -4.355100
Ge    3.038993   9.008993   7.700635
Co   -8.361656   2.250105   3.842909
Y    -9.520985  20.258213  10.275782
F     0.234711   4.198425  -9.052173
Sn    2.653402  -4.477245 -15.419440
Ta   -7.762650 -17.850058  -9.122190
W   -14.018326  -5.049390  17.777338
Ge   10.615587 -21.904624 -10.439074
Lu   15.634691  -3.294455  -1.426244
O     4.952943  -7.565550  -0.294672
Hf   12.641880 -18.402123  -1.221159
H     6.509135  -4.011371   6.853322
Mn   -2.081405   0.542534  14.744195
Ce    4.694305  21.145004   9.394083
Kr    9.968662 -12.512563 -13.014763
Se   15.216269  -9.920523   9.420043
Ce  -10.629518  -9.017956  20.252359
B     6.198097  -6.114707 -19.280731
Na  -10.579127  -7.446044  22.601644
Pr  -22.663587  -8.449053 -10.025518
Mo  -14.512391 -18.526949   7.057245
C     0.872371  -5.467334 -25.030889
Tb    3.873092  -7.760842   6.785442
Mn  -14.619919  -4.648760  -1.876695
Sn  -10.290664  18.096314 -12.741209
F    20.179306  10.218655  -2.568962
Re  -16.507986 -18.270013  -5.343913
Pb    1.540709  -4.334303 -12.999089
Si   16.268336   2.201824 -16.049592
Os   11.591707  -1.244453  19.463805
Cs   17.869722  -9.703247  -0.616490
Hg  -23.455949  -2.358665  11.556136
I    -4.626379  -2.388621  -3.049666
Na    5.309595   9.743746  17.993827
N    -6.313266  -2.117728   7.793501
Sn    5.717458  -2.926426 -17.855248
Mo   14.682922  -0.121117  19.020576
Os    2.833515 -24.828472  -3.643338
Al  -19.862547   3.473777  -7.904123
Ga   17.585599 -10.158313 -11.626930
Rn    6.825576  13.806307 -15.693347
Se    3.465850 -14.788760   9.685715
Rb   -8.744546 -16.713459  11.146553
H     2.449812  -3.079345 -25.313891
Co   22.009767  -4.061153  10.435906
Be   17.378270 -18.803786  -3.306289
V    22.692972  -8.556569  -4.912945
Hf   -3.107331  -3.710504   1.601856
Cs    2.185329   6.441600 -19.195434
Mg    5.741579  -3.810337  11.858552
Bi    3.338106  16.749522   4.890020
Si  -10.290849   7.412077  20.917380
Po   15.673905 -14.480505  -0.069454
Zr   11.770257  -8.590254   2.257627
Sm   -5.098921  24.832511   0.508799
Ga    6.886031 -24.224502  -1.816968
Ca   14.815799   5.154493  14.633497
Pt   -2.263762  -5.935063  23.015246
S    -4.990328 -17.505929   1.287878
Si   -2.312407  10.319235  13.960777
Pt  -15.928431 -12.033461   3.775140
Ag  -17.585434  -6.138596  -8.000659
Li   -1.740272 -16.707019   4.258258
La    1.019211  -0.062546  -1.098973
Sb   -8.612440  -6.067639  23.917838
F     3.066096   6.421142  -5.530970
Kr   -2.481670   7.061860   5.365232
Zr   -0.893085 -13.343307   0.130414
Ce    7.980140   9.067511 -19.695788
C    12.388399  -1.902816  15.429605
Cs  -12.114242  14.027797  -7.082574
Hg   -6.418921 -18.619055  -3.699560
Cl   12.950646  15.091366 -12.223774
Ho    1.993023  16.298599  14.035289
Pm  -23.743822  -7.245465  -0.222442
Au   -2.207939  15.828785  -2.084692
Sb   -0.593194  25.364841  -6.604531
S     4.301390 -11.538214 -15.333340
Mn  -16.087139  -9.084399  -8.213513
Po    0.804230 -24.608291  -9.166149
Zn    2.294305  -0.601982  12.648430
Rb   -7.129813   2.352390 -12.040742
Te   10.696715  -5.690170 -23.278208
I    -6.621452   7.012682 -17.170451
Rn  -10.362939 -23.075987  -3.792152
Rn   11.748300  11.874461   3.126151
Ga    1.560871 -12.738490  -0.179564
Rh    6.638505  -3.047264   0.877338
Rn    5.329968  -0.980864   9.337530
O    13.068539  -5.652236 -21.749768
Pm  -22.274574 -10.061572  -4.276146
Cd   -5.570595  -6.583025 -19.432088
P     1.884737  19.231164   0.700177
Lu   17.101848   1.051323   1.119352
Cs    3.884966  -6.131691  -5.573221
In   -8.923672 -16.159445  -1.765847
Pr    8.115202  15.136547  19.158637
Sm    8.150753   8.803084   0.123217
Re   -9.727010  24.750085   0.027833
Tl   12.629664   6.439684 -12.825330
Xe   -4.104876  11.000500  -1.115027
Pm  -15.154854 -13.630271  13.752761
Na   -3.833538  20.422179 -14.455247
Ag  -20.518091   4.858169 -12.470583
Ho    8.234360   3.320943 -23.572201
Ce    2.140350   8.217317  -2.337421
Eu   23.244962  -3.282959  -9.814877
Si   -4.621949 -24.898654  -5.097833
Ho   -6.937624   9.817659   0.513400
Nd  -10.039060 -10.708801   4.947564
Mo   -6.160919  14.863384  17.842546
Yb   11.427391   0.397759 -19.065586
Kr    0.512715  12.858969  14.150330
Hf  -16.817115   1.379189  -0.607942
W    23.170306  -6.772470 -10.386314
Hg   -5.700116   5.591199   4.502114
Cs    2.485596  -9.586870 -12.980272
Sn   -6.809749  10.576989  -2.235308
Mo  -11.982370   8.529180   4.511591
N    -1.781296 -23.125133   1.244346
Ti   14.562944   1.453687 -20.055006
Yb    3.856770 -24.704011   0.167254
Ga   -7.954972  14.555499  -5.412989
F    -6.366319   6.605744  -7.267291
Ir    3.037844  24.495835  10.191452
Ag   -3.453260   6.406923 -16.592023
Ga    1.834782   7.674812  23.139576
Cs   -6.920718   6.995558  13.097503
Nb    2.090764 -13.789980  13.196734
Nb   15.085535  -6.011978  20.643274
Tb    4.308960  -5.626208   2.222792
Ti  -11.791709 -17.834288  -0.685836
Dy  -20.232430   8.512875 -10.541905
Al   22.239523   5.618999  -9.834965
Tm  -11.284461   8.575373  13.789658
Mn   15.507064  -6.362756 -13.186227
Er  -15.941078  15.702153  12.493146
Tb   13.794319  16.608306 -15.125440
Rh   -3.870675   8.387471 -18.050179
Al   -2.153863  -2.535473  21.163490
Gd    0.993565 -19.912586   4.069561
F    15.020600   4.540428 -19.252503
Po   15.765384  11.470373 -13.007415
Bi    3.199012  -3.401218  -0.769979
Cd  -21.035537   5.122143   7.969190
Zn   -4.275197  10.679432 -13.056988
Lu  -10.015640  19.599843   7.293753
Rn    4.018233   1.303098  26.294957
Pr   -7.678584  16.801609   2.976957
Ru   -8.125987  18.314776 -11.495787
Se  -21.620678   8.113783 -10.345901
As   -0.651231  -4.735646 -14.489691
Yb    7.703004 -10.572111  -9.807233
Tl  -12.278589  13.532130  -1.159624
Kr   -4.664563 -10.029386  -1.765516
Sr   -9.396194   2.731379  -0.055878
Y     3.091330   6.003431  -1.241411
C    -9.951689 -11.176273  -8.936119
Au  -12.313132   8.695956  13.757097
Ge  -14.656078 -11.555466  -4.542306
Tb   -0.476129  -3.414994 -14.534882
S    -2.124127  -0.691447  -3.167412
P    -4.636666  -7.347243 -11.109291
Tm  -15.072789 -18.314739   0.230015
Os  -19.011549  -9.271727   2.129929
O    25.665335  -4.390878   2.372907
Mo   -9.038182 -21.745125  -4.507077
V    -0.734103 -15.111306 -11.503189
Nb   -8.721002  -4.407883  -8.445143
Zn   -2.532965  13.281498 -11.420144
Cr   14.905032  -1.924690  17.327730
Ir  -24.988244  -8.266199  -0.913019
Y     3.473808  15.979508 -14.660566
W    17.938832  -7.158865  17.815117
Pr   22.736466  -5.029021   1.334058
Sb   -7.128739 -12.236093 -20.729191
Tm    0.257985  14.256550  -6.887453
Ru   22.470434   8.145394 -10.429180
La    8.312152  12.138470   0.260042
Tc   -9.189311  -4.307288 -16.230201
V   -16.521346  -2.986621   9.552463
Ta    5.974671 -19.897196 -13.327499
La   15.608520   6.141081   4.620945
Cs    0.618628  -7.163550  20.410381
Mo    3.597973 -14.532945  10.745560
V     9.069053  20.080402  -4.933787
Dy  -14.630778 -18.627825  -5.086091
Tl   -1.095851  -8.120874  22.149726
Os   14.911554 -13.997997  -7.330377
Yb    6.234067 -12.851439 -15.286366
Be   11.601782   0.173556 -10.913244
Rh  -12.438609 -18.797519  -4.924992
Ti  -25.727931  -2.027254   2.207585
Os  -21.052410  -1.801559 -15.378764
Kr  -10.215452 -15.740647  -6.383305
Sr    8.872235   6.136322  10.548997
Bi   -2.847248  20.221000  -5.900597
Rb   -2.083325   2.426858 -23.395455
As    9.794092   9.474903  -5.305641
Nb  -20.125455   3.276511  -5.276225
Co   23.333357 -10.237515  -3.124891
Ne    9.618107   9.757216  20.817448
Co    4.078040  -3.001494  -9.821217
In    9.473073   5.142615   6.327023
Au  -22.890635   5.418778  10.310726
Zr    3.174798   8.403558 -23.907905
Li    1.937457  19.906306  -1.685632
Ni   -2.223250 -10.628092  19.954296
Ir    1.357719 -11.917115  -9.580207
As    7.436309   3.781982 -22.680211
Pr    8.100546  -7.438299  17.811573
Ce   12.465853  -7.273492  -2.457853
Po    2.948820   7.222704 -17.083873
Tm    6.897260  -7.853751 -11.651351
Rn    8.956766 -16.683350 -13.910766
F   -13.568257  -4.616567 -21.814940
K    -0.738717  -1.662389  -3.607533
Pt  -13.959930  13.772281  10.049276
Al   14.664756   0.037913 -18.218201
Rn   -6.410493  -9.415955  21.341882
Bi   -5.783309  -8.859614 -20.411372
Al  -19.444044   8.932676  11.600240
Hf   -2.456781  10.853866  14.608475
Ir   -8.397208   4.940984 -24.104730
Kr   10.340492   5.439884   7.568457
Ho   12.431863  -0.128770  12.720231
Ar  -22.876118   4.293937  10.364595
B    -3.865000  15.605526   9.879911
Rn  -10.568539   5.430172 -16.416479
Os  -11.582663  -6.339450 -19.113052
Po   -9.513112  11.540964   9.271098
Mo   -6.808143 -11.560629 -21.780601
Ba  -12.851137  -6.672382 -16.620320
Ge   -8.495568  -8.358049 -11.900857
Fe   10.123509  10.613231  11.183662
Tc  -21.345203  14.768938  -6.309638
At   -2.782625  12.248384  16.045929
Dy  -10.012639  12.606352   0.538707
O   -23.151537  -4.746855  -1.164738
Pb   16.679698  16.335450 -10.788806
Ni  -10.577252  19.016813 -11.470573
Ge  -21.793967  12.945598  -2.562287
Nb    1.433657  22.837401   5.455455
Bi    6.231836  19.656956   5.718559
Se    0.102842 -17.821823 -17.697191
Li    3.730614  10.958641 -11.595445
Xe    6.457816   2.343032  11.260375
Al   16.048730  14.813952  -6.234994
Er   -6.315940  15.033049  -7.937503
La  -14.414661 -10.791851   7.773429
Ru    3.313226 -15.471670   8.268003
At  -15.188602   2.253553   8.337508
Pb   14.653532  13.214227 -12.319844
Mg    4.187238   7.160111  -2.961230
Pt   -6.745870 -13.031321  14.962341
Rb   14.208046  -0.486636  16.978853
Rn    8.849548 -17.470649 -17.907093
Ni  -10.548232 -10.971751  -2.064290
Tb  -15.723018  20.891537  -4.763380
H   -22.286270  11.447208  -5.081402
Tm   -8.846345  18.587874  -1.714149
Tl    6.747706 -23.265979  -6.288191
Ne  -23.098247   5.892245  -7.615528
Bi    8.491309 -22.406623   5.491734
F   -16.780706   8.558462  -7.256265
Se  -12.733937 -21.806502  -0.216450
Zn   10.070714  -5.374362 -12.702299
Co    7.915518  -2.510120   1.869959
Y    17.262753   1.651783  18.808296
Lu  -14.525015   2.115074  20.047874
Y   -10.682492 -12.915169  10.286582
Ir  -18.114197  -6.630726  -1.700896
O     2.773429  14.315269 -20.594744
Ru    6.170995  10.091448  -3.278783
Be    6.121658  -4.965483  21.030119
Sb    4.804531  11.229496  -1.775396
Pr  -20.031314   8.640544   2.063313
Yb  -21.529420  -7.399970   8.697045
O   -10.415759 -21.977400   0.181766
Bi   20.038563   3.046751  -7.496543
Tm   -8.228496   2.696416 -18.980261
Hf   -9.139580   9.734916  -9.168522
Fe   13.744485 -11.206011 -13.525550
La    2.875263  19.873767  17.481480
As   18.915296  -3.347008   8.118460
In   -4.953480   4.230011   3.760636
C   -11.284274  -3.008424  14.380093
Sb    2.233426  -2.532869  21.053399
Pb  -21.212691   9.807952  -5.907542
Cs   12.541098  12.332695  -4.038306
Ge    2.563667  16.817791   8.683080
Pd   13.729354  19.223889   2.439584
W     6.397184  12.749760 -18.205660
He  -20.123589  15.517483   3.082817
Ag    9.435418  12.235580  -9.937012
S     0.436708   7.163037  -8.497946
Ge    3.857428 -21.675393  13.740673
Gd   17.497243   2.974982 -13.422961
Hg  -13.558700  12.014270  -5.555225
Ir   19.109445  18.634943   0.923210
La   24.425657  -4.505310  -0.427773
Cr   12.415968  10.228477   4.746819
Ga    6.142867  16.202307  11.314261
Cs   20.828496  -0.771098   0.944060
N    17.026737   0.740210  13.146885
B    -1.365301  10.846552 -18.935252
Mn  -12.324304  16.292905   0.232876
Ce    7.384091 -15.612120  -9.618238
Ba   10.807132  17.236172  -1.213504
Sm    0.638313 -24.744946  -2.753006
V   -13.233521   3.243507  19.838402
Ag   -4.719618  16.253394   3.792709
Re  -14.612883 -20.448129   3.524637
I   -15.210447  11.000360  17.602974
S    19.514108  11.794596  -1.109342
Yb    7.681476 -11.002991  -8.801237
Fe    2.370592   3.629306 -14.686794
Ga   11.014490 -21.597455  10.438430
Tb  -15.456035 -12.884654 -16.391979
C    14.376376 -10.123796   5.465072
Pm  -11.953658  -2.631992  -2.620090
Cs   -0.002081  -3.927289   8.795973
Pt  -14.384610   5.720584  15.789516
Si   10.172877  16.724573  -6.235934
Pr  -15.538920  21.465140   1.212601
Lu  -20.390945  -6.790222   6.589006
Ru   -8.233745   1.939380 -25.337365
Ge   -0.252219  16.219739  20.137070
O     7.622942 -14.506614  -6.718980
S    13.092231 -13.999075  18.358151
Ne   -6.891392  -3.868089  14.767617
Pt   -8.254500   4.868862   4.485858
Po    0.070314  -3.171900 -24.568740
Kr  -10.541438  -6.282532  -7.350327
Tc  -20.159035  -5.397420   1.242605
I    10.442087   2.193353   4.612978
Br  -11.484908   6.035156  12.815012
S     2.213975 -26.186879   0.174286
Ti  -17.078717  -0.023128   6.234037
Xe  -25.921790  -2.992020  -0.695219
As  -18.222068   2.112983 -19.412939
H     6.508767 -12.484981 -22.698991
Cd   -1.727023  22.893093   5.931338
In   -2.649238 -14.641185  -8.400758
P     8.755725   1.223053 -19.032994
Os   -6.298276 -21.958627  -2.371251
Zn   14.288340 -19.723280  -4.455212
Na   -3.147066   4.746558   6.827147
Pr   -4.914830   8.814496 -20.332380
C    -5.135198  14.733795  -5.192013
Ho    8.951915  -6.398698  10.629539
I    -0.922432  -9.023921 -18.180109
Ho  -13.319050   3.870621 -13.207900
Re    1.803585 -18.473644  -5.545288
Te  -12.178125   7.084096   8.569797
Ga   -2.990081 -17.440066  14.121354
Tl    7.294900  16.378213  13.087846
Tc    3.641299 -13.282543 -15.437901
I     0.642579  -2.311380   5.755011
Ir  -11.428774  16.615292   8.440997
Li  -22.559537   6.440834  -5.593601
B     0.704578   9.663310   0.893935
Zr   -5.557417 -13.999570 -11.863264
Ag   -7.130702  10.297563 -12.255424
Hg    8.067184  -9.409192  -0.657823
I     6.190284 -14.126065   7.908543
Ga   17.384583 -12.594177  -3.051028
At   12.509675 -20.675300  -2.093620
Tl   13.116282  -7.286506 -11.735670
Gd   -5.610094  18.577156  15.013853
Rn  -11.291953  -4.802884  13.033853
Te   -8.445148   2.758769  13.397156
Cr   17.685619  -1.435008  -7.317130
Ru   22.298704   3.582500   1.810128
In    3.775243  -9.255652  -5.077941
B   -18.155379  -7.811818  11.280009
He   -5.603220   3.036639  16.985543
K   -14.263752 -13.185677  -0.807259
Nb    9.892907  -1.458642  -8.068511
Tb  -19.490010   6.339509   3.462535
Ti    0.527534   4.018433  25.457404
Ne  -18.769277  -9.230845   3.068522
Ta    7.929023 -20.748628  13.522211
Po   -3.093104 -14.516924 -14.376349
Gd   11.726713  -0.617314   2.173073
Ce   15.753922  16.398149   9.851234
W   -13.884531  -7.172331  21.016493
K    11.497025  -0.830255   6.917616
Ti   -7.149963  -8.641335   7.744160
Lu    6.660865 -13.442068  13.369720
Cl   12.164160  -3.378044 -19.856341
Ar  -12.028445  -4.637243   2.989030
Co    7.238252 -12.002098   5.309959
Sn   13.566272  -9.625044   9.058554
Po   -1.558972 -19.508997  -7.746632
Rn   -3.911623 -17.617236   6.810012
Pd   -3.024987  -5.687094  19.028482
Bi   22.488721  13.418851   2.611626
Re   10.171591  10.350814  13.294144
Hf   -6.457836  14.842399   1.162982
Au   -5.826409   5.472631 -22.264599
Tc   -6.852919  -9.757583  15.314631
Dy    7.588323  17.744215  -0.529385
Be   -9.335977  17.765981 -12.278451
Xe    1.947033 -20.334476 -11.654013
Sb   17.922303 -11.556474 -13.071017
Cs    2.165646 -16.330640   9.204936
Hf   10.177591  -2.468213   4.765222
Zr    6.004751  -9.882851  -0.587501
Tb   12.201307  -5.957003   6.150263
Ir   20.564794  11.778719  -9.114166
Nb  -15.794019  13.125774  10.348189
I     5.270141   5.475536  15.870028
Sb   -4.688261 -24.897486  -7.404005
Ce   10.959626   4.827877 -21.482144
Mo  -13.662217  17.159312  -3.162697
Al   21.602738  10.539558 -11.558918
P    -3.290754  12.075000 -20.118472
Sm    3.509099   2.937209 -25.222963
Mg    8.418461  12.109870  20.888182
Ti   11.415634   3.268232  -4.971834
Mg   12.233843   5.469206   5.758365
Gd  -19.680984  10.904578  -6.538996
Xe  -16.326272  -8.325661  10.584221
K    -5.791313   4.510959 -13.271797
Ge    9.817710  22.365791   5.011796
Si   13.756315   7.045484  21.037340
Pt   -4.754543   2.220440  -3.830000
Sr    9.747653  -0.637418  14.765765
S    -8.668377   2.428456  -0.222410
Rh   12.709310   6.399955   1.357298
Tl  -10.150255  19.740642  -9.953632
Zr   11.445095   7.917512   7.306046
At   17.301624  -4.158891   3.978284
Ce  -22.683634   8.157678 -10.766527
Kr   10.184869  19.942316  -3.762524
W    12.894040 -19.020657  -7.608165
K     9.859281   6.993506 -14.229867
Dy    6.991710 -16.108081  14.627975
Re   -6.320757  -5.263714 -13.566880
Ru   -1.453848   9.702571 -20.831157
Ta   -3.860086  -9.607180 -18.987173
Zn   10.671196  -8.082137 -17.434873
Cl    0.927409   9.987197   5.030734
Gd    6.059815 -17.047024  18.134045
Bi   22.949510  -0.825206 -11.719115
Ta   17.094202   1.724845  -9.565930
Ca  -13.378010  10.991533  12.236235
Ru   11.227155  13.456154  -9.429924
Se   -1.065124  17.564392   0.752410
As   -3.904011 -18.632775  -0.312864
Tl    4.662913 -11.668322  -9.751294
Pb   -4.704294  -8.795834 -15.648058
F   -22.838068   6.323957  -4.223244
H   -20.375784   6.691423 -13.472553
Mn  -13.689977  19.132626   0.257478
He   13.427485   5.796385  12.646328
Cu    4.741551  -8.519998   3.717422
Ag   -6.425244  -9.424544   0.868010
Cr   11.499285  -2.530101  21.789403
Ba  -13.316957  -7.688337  -1.641770
Pd  -18.420072   7.412180  -9.314206
F   -13.975821  12.580776  16.980101
Ni  -11.070822  11.999544   2.095175
Hg   11.220457 -17.817769  11.214032
Lu  -12.450268   1.358326  -2.079817
Si   11.322630  19.789868   8.778437
S   -14.291669   8.091276 -11.363264
Sc    6.984938 -17.875722   4.316898
Nd   -8.653696  -3.747384 -13.747864
Sn   -5.342320   8.680337  -5.950935
Nb   13.749408  -5.776431 -17.949047
Cl   11.333585  16.404240   2.656062
Au   -0.500424   1.787664  14.126331
Si   11.579711 -12.526462 -15.156937
P   -18.431304   7.292176  16.981454
Po  -21.725766  -1.376631  -1.598513
Te    1.508653  -9.655641 -17.297678
V     9.903740 -12.945035   7.000817
Lu   -4.151979  15.501363  -4.380495
Hf  -16.150833  15.920790 -10.659787
K    -3.524459  -5.532253  -6.585134
Sr   14.809918   6.928223   9.582676
Mo   10.970918 -11.858330  -5.138208
Cu   -8.378053 -23.701553  -8.704416
Hg    0.766065   5.163538  19.224313
Bi  -22.434477  -3.623024   8.197701
Ce  -11.005621   4.142131  15.380186
K     2.531282   1.334159  -4.340762
Ni    4.427511  18.305603 -18.902568
C     9.490762  -5.120531  -1.277950
O   -22.510840   0.256273   4.083083
Pb    8.344348 -11.846667  -1.283780
Ne  -12.581282  17.188573  -6.447366
Nd   11.265678  10.285554  17.242779
Ba   -5.092481   3.695069  20.622900
Ir   21.952399   0.390917   4.430860
Lu   -3.214465  -3.590654 -19.180156
W    -0.282810   8.036099  19.446485
In    9.194506   7.983027  -1.661532
H   -14.698646  -7.090584  17.843575
As  -12.340236  16.257011  -1.535882
Rb   10.638401  16.824962 -17.709992
Br   16.334858  -6.662308  -7.922049
H    20.381676  -6.999123   8.096404
N   -18.294245 -12.969345  -5.758875
In    1.144785  -9.053519   6.116313
Pm   -1.983287  16.176248  -1.088077
Po    3.424314  14.071287  12.495290
At  -14.238509 -17.866255   2.411103
Mn  -18.197598  11.112370  11.969917
Yb    2.212693  -1.734482  20.702835
Rn    9.739527  12.066135  -2.940037
Hg    4.520848   0.950064  18.770357
Ho   -2.161735   4.809270  -3.761069
Tl  -16.546936  -8.282593  13.916830
Re   -1.194619 -11.731695  20.005355
Pr   13.994464   3.592612  -4.158467
Ba   12.009456  10.697356 -10.535060
Ir   11.343135  -4.439807  14.690790
Cd   -2.841873  -0.748412 -16.096690
Ce   19.168427 -12.359108 -12.323216
Nd   -3.249302 -20.732948  -9.221008
V    12.632009 -15.240051  15.261265
Sr   -8.401251   9.923385  21.651348
As   16.865575   2.184535 -12.220562
Tc   -3.779199  -4.210934 -12.211487
Os   12.714337  -2.108258  -7.111998
Zr   16.476357   1.317525   9.840476
Sr   11.266434   2.243152   5.944535
Rh   -6.958223 -18.614366  14.646029
B   -17.917273   6.665475 -11.113272
Kr   -4.602728  -4.598796   1.667466
Er    6.742435 -10.161348 -23.092170
Mg    9.515252   6.221914   5.139267
O    -5.207457 -19.954108   3.491486
Fe    4.263643   3.527820  -2.526464
Al   -4.503195 -11.542955   4.917539
Pb   11.678375  -9.481631   5.842644
La   -9.764824 -17.469349  15.946166
Cu   12.514557  -9.815719 -18.659601
Lu  -10.030607 -15.186515   9.238972
Ne    5.097546  21.529383 -14.577239
Sm   -7.250842 -19.467942 -13.186457
Ba   -8.161794  12.160214  -2.400101
V     3.073903  24.031843  -0.207167
Mn   -4.689161   4.507372   5.644225
Ni    2.701371 -11.654207  -6.746860
Sn   -2.067291  11.343133 -18.423956
Fe   -9.744031   8.005777  20.298684
Tb  -22.862586  -6.543614  -1.246960
Cr  -13.202029   4.317396   1.435425
F    -9.366241 -10.333954 -13.797428
Cr  -14.102976  14.444979  14.631223
Cd   17.208135  -2.697853 -15.196848
Ni    9.103957  -0.206390  13.837490
Pt    6.864591  10.157015  21.887951
Er  -19.267529  -1.540570   7.753549
Al    4.593676 -16.070440  -2.839750
Li    2.178468 -10.857770  -3.667885
Co  -16.018359   2.662177 -16.578852
Pt    5.807302   4.959349   4.328567
Ba   17.090150 -14.796368  11.506316
Cs  -14.360093   0.035855  12.244762
S    -6.135859  19.970742   9.814373
Ge   -4.869869 -21.296307  -4.728175
Li    1.032579   3.837912  19.155534
At    7.332176   4.269294  17.853028
O   -11.332148  -1.464850 -20.642435
Ir  -12.805372  22.414925  -5.564360
Os    4.840226   9.869904  14.775031
Ne  -17.179976  18.473155   7.448493
Tm   12.441671  -2.504915  14.573709
Cs   -0.033155 -10.044617  13.947110
Be  -17.822101   4.969758  -7.539020
Ag    2.446903  -7.586008 -15.719382
Rn   -5.787497   5.299130  12.852194
Ar   -3.312285  11.553645   2.341955
Ga    4.238572  13.708854   2.871729
Cs   12.008478   2.251729 -13.184430
Te   13.242785 -12.710124  -2.488878
Pb   -5.846065  -5.125925   5.926304
Xe   10.185405  -5.454648 -11.528467
Ag  -14.016408  14.208488  -6.097790
Au   13.598058   7.073611  11.702555
Ba  -23.813573  -3.646437  -2.845803
Ba  -11.480762 -12.642380  10.773740
Rb    8.706061  23.738026   8.486992
Kr  -13.179603   7.448936  -6.316141
La  -19.732609  -2.957727  -9.374165
Mo   17.426320   5.600139  -3.439681
He    6.272122  22.417793  11.131060
Pt   -4.572742  -1.659153  22.870298
At    3.298703 -13.577728 -13.308811
Po   -9.520745  11.847826 -12.879566
H    -8.726394   5.826308  -5.098016
Gd   24.835877   8.363526   1.831206
Sr    4.667003  13.190137 -22.123130
Ar   14.538620 -17.455880  13.881791
Xe  -22.030686 -12.717644   2.019933
Br  -23.659659   4.865851  -1.811328
Ho   15.908968  -8.937329 -10.528976
Eu  -10.906675  20.990565  -3.297646
He   -8.059207   7.796286   7.466822
Pd   -9.182745   2.040211  13.879364
Zr  -21.097385   4.669586  -9.875245
F    16.615656  -1.468647 -20.485610
Sb  -16.967123  -7.295631  -4.206212
Mo   -8.880212 -10.663442  -4.624688
Cu   -0.509065   9.275634 -14.504134
Cs    3.690147 -19.117263  -6.283448
Ti   -0.635434  14.533334  -5.755977
F     1.297991  -1.076847  16.417547
Br    7.913442  -4.146911  24.331491
S    23.250855   0.980838   7.535314
Xe   -3.366726  15.574122   1.914317
Yb   16.450926  -7.797273 -10.344473
Ir   -3.602137   2.208683  21.198773
N     1.395515  21.302987   8.271519
Ho    6.113849 -15.311861  13.682763
Re   -3.049188  11.537887  10.449767
Sm    4.784319  -5.878229 -14.132331
Ar    9.451354 -17.800143   4.668417
Mg    9.200530  16.905499 -10.839304
Rh   -6.237481   1.048655 -11.454660
Y    12.427064  -8.676196 -18.394257
Be   15.495740  15.245427  14.648689
Li    5.977098  -7.308397   3.539473
H    12.962468 -11.405984  -3.314155
Tc   -4.819422  24.213891   8.637366
In  -11.935327  -1.556862   0.461684
Yb  -21.502352  -6.201253  -3.764659
Rh    4.006214   3.333541  24.982314
Tc  -20.819853  -3.860488   5.266303
Eu   16.401180   2.432985  -8.504291
Yb   -0.926280  -2.018808   6.992803
Hg    1.092546  21.443339   5.924668
Ho   20.534684  -3.169758 -10.469484
Pd  -13.666144  14.904104   3.094470
H   -16.931637   1.635179 -13.246959
Al  -19.132361  -1.131891  -2.459125
Kr  -15.862153  11.387756  -6.667661
Sc   15.676018  -8.305890   7.074992
Cu   12.071591  20.670683  11.670154
Ne    4.608709   8.212898 -20.718895
Pr   -3.035098   9.521599   7.156378
Xe   10.631982  -4.856172  19.922189
Eu   13.880195  13.947911 -12.289629
H     4.534610  17.080854  -7.415478
V    11.726609  17.742686 -14.818152
Tc    5.237485  -2.022530  -9.520836
Al  -13.899455  10.850414   6.687180
Mn   14.247257  -8.940298  -8.342981
Cr  -11.148673  14.274761   9.533026
Cs   25.314188  -1.354544   7.252247
Tl  -19.508740  -8.128978  13.592832
Sb  -16.420965   9.908068  14.307992
Yb   -8.912223   1.677189 -23.613607
Rn   -5.343763  12.195050  14.041460
Ce   -0.431541   8.462609   8.732975
O     6.845515  14.419738  10.888307
Zr   10.929675  11.691018  -5.592158
Ce   -4.174183  21.675928 -12.222437
Tl   -9.758206  -5.017703   8.692224
Be    2.798625 -23.585510   3.962400
Gd  -10.859291 -22.981795   4.172906
Xe   -6.989245   4.596572   0.476212
Er    0.045612  17.846069   8.276600
Gd    5.436341  -0.473898 -18.692354
Y     8.921049 -18.517423  -8.043383
Ba  -15.855823   3.939198  16.295369
Xe  -15.877328   7.759681  -7.108752
Pm    8.326943   9.119055   8.547347
Dy    8.048931 -21.218872  -6.850503
B     2.813856 -11.464381 -19.425903
Tl  -22.675787  -9.130708  -5.200422
Kr   13.947047  -9.229755 -12.307252
Cr   -3.624627 -10.569691   1.114543
Tm   21.203450 -12.112727   7.461124
V    -8.675623 -14.523505   0.728682
Na    4.479924  -3.855895 -10.558759
In   -6.676693  -0.333349  13.158338
Ru  -11.151836 -15.966363   8.054253
Zr   -6.862876  24.791149  -1.636035
Sn   -8.116988  15.744774  -3.661270
Tm  -17.712404  -3.122768  -8.535488
Ar   20.734301   1.971848 -14.837484
At   11.877515  -4.387478  -7.819507
Tc  -21.142353  13.171309   3.472975
Lu   -8.367725  -6.906368  19.676594
Ge   12.459137  -2.566088  -3.452857
In    4.914480 -15.315476  20.278116
Sn    2.404945 -19.422569   0.037083
At   13.767558   9.161976  15.903701
S     0.478381   6.280512  11.288221
Pd   10.364500  16.275207  11.942521
K   -14.268455  -7.908826  -7.281302
Zr    7.329298 -21.670278 -13.401685
Tl  -12.938756  17.368730  -4.954552
Rn   -9.564950 -13.845924  16.295488
H   -15.415798 -12.748742   7.467354
I   -10.436742  -5.277446  20.795636
P    -7.517242  13.468535  12.802967
V    12.463415   4.910316  17.374856
Cu   -5.776375 -11.686889   6.622857
Y   -17.812822   9.056868   6.495619
Ag   13.561234 -13.656695 -10.486969
Nb   -1.695286 -13.529409  12.759611
Os  -15.513181  -8.089412  17.949025
Dy    3.966036  -7.280907   7.524469
Mo   22.238839   7.438726   9.501287
Ni    7.891536   5.059977  -7.084855
Ta   14.169385  -6.897052  -5.711153
Ta    3.911511 -17.580680  -3.716143
Sc    3.635684 -23.690497  -1.202542
Pb   -9.355304  13.116391  18.301098
Co   -7.623427  11.487908   6.802122
W     1.961567   9.630890 -11.016032
Er    4.955716  -8.779205 -15.408341
W   -24.654424  -2.710836   0.898631
F   -12.161330  13.973239   3.496632
Hg    9.928842  -7.102480  20.913502
Ge   -9.091280   0.619460  15.781190
Nd   21.449800   0.917053  -6.783523
Sr   -6.541436   5.409999  -6.334117
Co   16.129436  13.667803  -8.676862
N    12.585832   0.456101  22.153823
Bi    2.303549   8.503892 -11.504630
Sn   -0.817998   2.476742   8.816098
Au   -7.120573 -16.320160  13.887890
Ti   -8.953361  -2.805882   4.764814
Kr    1.796398  -9.634601  -0.336222
Tc   12.469537  -9.104750  16.411055
Y     4.149991  19.147451  12.119100
Sc   16.984646  -8.043335  -9.016616
Ne   26.492708  -0.815358  -0.966960
At    7.840231   6.517743  12.671493
Cd   19.462934 -15.311044  -8.473171
Mo  -11.923989  -5.698251  -8.006854
Ti   -2.272955   3.174685  -0.549223
Nb  -14.458048  -1.216871 -15.023739
Nb  -17.647137  -1.132891 -18.074044
Be    4.748173   8.718990 -10.324158
