8000
Random sphere (Final Radius: 33.68A, MinDist: 0.8A)
Be   12.097826  18.748675  -0.597255
Sm   27.622638  -5.836578 -16.349472
S    -2.604085  -1.080957   0.606316
Sr  -20.451459  -3.853945   7.163259
Rn   -5.020161   6.183006 -22.423960
F    18.281574  23.251212   4.950979
Ca    7.233224  13.026176 -11.362962
Zn   20.318257 -10.648878   1.506678
Ga  -10.823539  12.823179  13.217340
Si  -25.009847   3.408224  -1.880973
Po   12.629268 -14.985945  20.502346
Ag   -4.545975  22.240734  11.753289
Ag    1.108943 -23.202457  -1.460753
Xe  -20.210774 -15.454953 -19.550802
Be  -12.412050   1.815348  -3.362354
Ne    8.631513 -16.275242  -0.866357
Co   -0.157214 -21.290349   6.707343
Hf  -19.870443  13.722893  -3.303813
Na    7.241486  -8.769787  24.911718
Cu   -7.095752   9.077412  13.900322
Au  -14.214300  -1.520750  12.133243
I   -18.095582 -22.017030  16.126731
Tb    8.532098   4.020708  19.090671
Tm   -3.903398 -11.410068  -9.443878
Fe   13.760675 -21.537119  18.060198
Os   -4.572104   8.600078   9.414397
Te    8.544055 -14.778030  -4.154959
Hf   17.712966  11.834911   9.170404
Cs   10.494247   3.929564   7.366896
Ar   19.903992   5.768557  12.859361
Tb    3.813848  -7.939326  -3.765063
N    23.899182   8.542204   8.651061
Zn    6.139002 -27.182041  15.145228
Sm   25.628484   9.925456 -14.082567
Hf   -1.393981  -5.209422  16.937658
W     8.833038   0.892383  25.728790
Bi  -19.216143  -0.827284  22.756283
Pr    6.358245  17.300085  13.806811
Cu   -2.834430  -8.783044  -8.351306
Pt  -20.979546  16.473234  -9.748024
Ge    4.681152  27.981769 -17.293969
Li   -4.376696  -3.851872   2.815485
Nb    0.181508  25.251640   8.710851
Cs  -11.949212 -15.302029 -10.967909
Ta  -14.215659   7.139091   2.905044
Ar  -14.039644   9.705634 -28.955142
Pt    8.456736  -5.183210  21.173935
Ar  -19.181655  18.089422  20.331483
Be  -18.599213 -20.144052  15.762838
P    15.146531  14.182814 -22.082917
V   -15.998024  13.061241   4.198160
Ar   -7.611807 -20.220913   5.906497
Pb  -28.859658   0.929688  11.022713
Mo    4.900293  20.096621 -13.090259
Mg  -21.337896   0.833659  15.330108
Sn  -27.698956  -1.045679  10.363573
Sc    8.857883 -25.779006 -13.562013
Pd   23.181051 -19.555912  10.811072
Ba  -24.528128  10.444625 -10.577600
Al    8.603594  -9.554299   3.738191
Cr   20.502989   7.884261 -24.513069
Sn  -24.203276  -4.303345  -2.407380
Dy    3.484837 -32.581882   4.221919
Nb  -10.276638 -21.472974  16.287662
Mg  -22.543561   2.354465 -22.585635
Se  -11.790912   6.351432 -29.013708
Hg   -2.802502   4.689141  21.573042
Pd  -10.494331   6.927535   4.835527
Nb  -27.273230   5.826729 -18.459477
Cu  -11.016475 -13.914873  -7.936733
P    -7.528220 -21.521347 -15.687144
Ca   -1.256518  18.280651  13.539783
Kr    1.326391   4.380754  19.035093
Os  -13.655090 -28.891658   1.130967
Sr   -8.434000  -2.978048 -30.399687
H    13.643425 -24.858980   0.205816
Sm   31.737495  -1.735798  10.712079
Pr   12.479739   2.244104 -19.696035
Dy   23.679967 -15.743991 -15.058764
Pt    2.013401 -15.433496  -0.225301
Rb   25.261166  -7.867080   8.708826
Ar   26.525073   7.189215   4.662256
Li   13.772961   6.626954 -17.294158
Ba   -8.581259  -7.434375 -21.311473
Ge   14.632583 -23.659903  -8.516683
Pt   20.321652 -17.126705  -6.625536
La   -9.370505  19.683786 -13.221095
Rb   -4.968340   3.287406 -19.223311
Pm   17.315834   8.688296  -6.499019
C   -15.173277  -2.800331   3.177751
Ce   16.964377   7.369753 -13.213145
Pb   -6.441682   3.166724  30.741368
Sn   16.619579 -14.858359 -13.398800
Gd    2.656984  -9.321275 -15.172394
S   -24.329223 -17.281954  12.469381
K     5.349811  -9.426326  -1.377751
Ce   -3.461355 -14.795292  25.211160
La   14.104740  -9.546296   8.655430
Xe  -18.222476  25.124695  -1.540296
Co   18.941680 -22.701770 -10.328588
Tl   -9.282977 -11.237438 -22.510862
Ne  -19.022989 -17.417842  21.267357
Mo    1.165366  -7.895503   1.348186
At  -11.352939 -11.901383 -13.774234
Tb    0.448948 -15.567874 -18.311109
Yb   10.517497 -11.038148 -27.019022
Zr    6.820166   1.352741 -17.358919
Ga    4.951204  18.879124   1.705315
Ta   13.077256  26.523048  12.924281
Rb  -12.751878 -27.733959  -5.733266
P   -10.949487 -22.488837 -13.982869
Ar   15.925702  16.018935  -0.010488
Mo   23.186292  15.192665  16.347989
Cs    3.163973 -28.846847  -1.473448
F    -2.112914 -16.976732  -8.923792
Fe   12.427866  -4.107394   5.322567
Gd   12.004624  -2.087507 -14.966006
Rh  -20.635724   0.238699 -20.859707
Se   15.290793  11.032862  -8.983101
Pr   11.395032  -1.266898  27.271009
Bi  -13.605300   0.203492  -6.409851
Bi   12.826373  -6.509308   1.950406
Sn  -15.156976  13.207127 -22.997118
Pm    0.559446  -3.086388 -23.405157
Ni  -15.102556   0.821728  20.408417
Nd  -11.325055  -1.755194  11.022246
Ge   15.415315 -25.287814  -9.777916
Xe   -4.801046  27.980420  -6.112019
Ne   -8.061957  -5.656658   7.400973
P     5.230278 -10.256866 -10.724917
Li  -27.264021   9.173830   2.755658
Yb    7.496158   3.691341  30.765606
P   -28.431990   8.752790  -0.384269
I    18.207810 -23.861720  -3.527892
Y    17.884374   6.936955  15.206410
Sn  -20.558577   9.955169 -23.616292
Ho   -2.232039  -2.295326 -24.933966
Fe  -12.199256  -8.971921  14.811684
Pm   17.616182   1.755232 -23.790321
Dy   -0.716479   8.217422 -16.609671
Ga  -27.805771  10.061224  -4.376171
In   13.018711 -15.385406   2.614560
K    26.825582   0.631267  15.801713
Sn    7.349656   4.063441  28.318209
Nb   -8.041186 -28.667071  13.536887
Ti  -17.518392  19.757555  -4.886016
In    7.843732 -29.366108  -5.261988
Hg  -15.258954  23.702026 -15.254693
Sm   25.014574 -12.596100 -15.127799
Yb   10.885324  24.503932  11.140615
Nd    0.689938 -18.940571  -8.929890
Lu   -5.588527 -28.768996   2.809900
In    4.984154  -4.994328 -22.506771
Eu   23.496441  -8.494289  13.916048
Ce  -15.357496  16.228765  -0.001940
Si  -10.145152 -20.959901   4.415279
Ce  -22.460558  -6.537367 -24.012337
Ge   -2.981873 -15.236999   3.661273
Tb   15.773485  17.477197  12.040118
Hg   12.778960   5.688055  -7.890288
Ga  -17.011299  23.233949   7.963475
Nd  -18.531204  17.959390  14.395265
Cl  -26.393692  -9.496610  18.069362
Mg   -1.355455   8.967366 -31.137959
Er   -5.886586 -20.132641   0.010263
Cl  -27.403518  -4.108912 -14.231094
Ir  -26.679381   0.533331  15.996285
Po   -7.920158   4.480010  21.608385
Pb   16.650600  17.862084 -15.280839
Gd    9.737515   0.320618  22.512708
Cs  -14.720975 -15.369927  20.665590
Cs   16.147577  -3.940471  27.273436
Po   -6.332927  14.025991  24.318398
Si  -19.435764  -5.169935   5.439326
Sr  -28.256876 -14.496747  -1.578774
V    -4.325261  27.257338  -9.516349
Sm   26.036137   8.936664 -13.906879
Sb  -11.489201 -11.166413  -6.337738
K    -9.074603  -7.265375 -28.451359
Ag  -21.207345 -23.240351  10.009019
K   -12.455082  13.777852  19.480758
Mg   -8.346825  17.263560  -9.231739
Tl   -8.329223   2.043292  12.795080
Cd    9.130892 -29.029361 -13.858860
In   -9.204974   8.574981 -23.343498
La    0.427085  23.121557  18.881276
B   -12.118393   3.867798  -8.455500
Cl   -8.329584   4.126636 -18.088758
Mg  -10.742422  -8.792406  -7.735733
Sn   -7.307803  21.128448 -12.538480
Sc  -20.051501 -11.732049 -21.330008
Br    1.928716 -23.081332 -24.074227
Kr   11.610205  18.790815  -2.726158
Lu    3.155840 -17.730433   1.532903
In   10.278183   0.728889 -25.447289
Rh   -0.185306 -26.509062 -14.745236
Kr    5.742166  29.704384  -1.749187
Gd  -13.387540  -6.643177   3.051870
As   16.660523 -11.385215   9.585945
Hg   26.771845   6.304158   3.076398
Os   12.880840  -6.991619   8.340120
Hf   -6.912690 -17.263546 -25.383378
Yb   15.732134 -18.947754  -4.297692
Sb   14.638280 -24.894468  -5.154907
Mn   10.447023 -12.512434  23.779527
W   -19.701574 -20.967210  -9.615618
Ar   17.777557   4.575642  24.334372
Ru  -19.271115   4.838676  23.152384
Cs    9.583825  -1.609253  23.588160
Pb  -11.404460   9.358195 -22.911387
Nb  -11.957522 -22.672337   8.036585
C    28.334022  10.104902 -13.611934
Po   19.568252 -10.890791  14.407084
Ga   -7.089412   3.079104 -17.224583
Hg   -1.442004  20.816176  13.553692
Pt   16.298523 -13.652174  -3.662461
Si   -7.081595   2.065189   0.999827
Yb  -17.716030  -0.782410  18.191551
In  -11.455572 -24.593223  -7.738283
Cr   16.163505   9.288408  -9.127200
Sn   13.616359  10.302572   6.653628
F    19.152411  14.743584  10.905756
Ge   17.920670  -1.453885  11.605211
O   -26.852166   3.074016  -7.749519
Xe  -27.050563   9.182156   1.792639
Hf   12.161578  -3.137770  29.481852
Li    8.244791  -0.816739  16.634248
Os   -8.709607 -10.824757  -1.427508
Rn   -0.055942  -1.217532  30.134784
B   -13.949187  -1.574785  11.047035
Na  -12.546700  -8.205541  14.883730
Ce    8.392530   5.257326 -12.610103
P    10.857478 -15.773364  -8.343179
Ca  -20.915619 -17.348145  -7.538057
Na  -16.730233  -3.074086 -25.035168
Tc   19.264835 -17.669277   8.057487
Na    5.370346   8.741662  19.553914
Cu  -20.398779  16.416694  16.562057
C    16.444962   9.363331   6.790968
Ce  -24.916589  -2.592809   3.918568
Pb   -2.921506  26.982085  11.970970
Cs    9.072722 -11.408071 -17.906583
Au   -3.564864   6.361230  15.164791
Y   -11.050727   4.671918  29.395890
Er  -14.017650   1.164052   6.916869
Cu  -13.638637   4.103548   8.878740
Se   -4.809572   9.119067   5.469656
Mg   24.320958  12.404289  13.299325
F     7.546231 -15.730294   3.470193
Pd  -15.606918   8.973180 -16.695658
Ce   -8.030290  14.679133   8.730427
Tb    9.068932  17.552340  -9.932121
At   -0.992793  24.120475  13.940254
V   -21.262049  13.596072   1.684650
Lu  -27.143220 -15.115360   1.840871
As  -19.954056  10.654818  14.628934
Cs    4.615148   7.534392  -4.788451
S   -21.542692   1.852943  23.850157
Ca  -10.976906  -7.641873 -28.623466
Pb   10.414654 -25.729768   3.579190
Li  -19.100335  13.813036   0.752012
Ce    1.456059 -21.825729   2.183751
Nb  -10.797764  19.939319   4.462399
Tm   14.941825   5.728815 -23.994376
Mn    5.005818  -3.187037  26.999404
Tm    5.128121 -15.547479 -21.951062
Cr   -3.035707  -8.213601  29.401735
Au    0.230714  15.739721 -27.467100
W    -4.061235 -18.908240  -8.538965
Re    0.350527 -25.783277  -8.644249
S    17.609218   5.608007 -19.990255
Na   -1.643271  22.352993   5.968534
Te   -8.155018   3.166519 -21.304162
C    25.617472   0.869486 -14.595648
O    25.250439   3.449695  -8.346038
Cr   21.463039  -5.970386   5.217011
Ta   -4.687445  25.405023 -12.281037
Ca   -1.302511  21.752761   1.559920
Os   -5.307803   1.363900   8.447947
Nd   21.998078 -20.282673   5.906284
Xe   -1.933067  -4.261340  -9.645718
Os   25.251735 -14.140479  13.818064
F    22.836656  -3.298419   6.968538
Ce    8.686128 -23.814170 -20.629103
Ho   13.125366  11.811963  21.025004
As    9.795606 -10.489392  12.960414
H    19.251933  13.606747  13.767981
F   -21.393487  -9.326963  18.844396
Rh   11.112819   0.560581  31.289895
Rb  -21.121884  -3.155813  15.810803
Ar    4.584838  19.090682  13.543633
Sc  -10.441067 -25.784191  -8.700596
He  -26.834848  -4.100749   0.481184
B   -11.521898 -19.576948   7.302923
Sc   12.517904  -7.161146 -11.405889
Lu  -31.209555   8.391092  -3.546706
Pb  -13.035981  -1.762617   3.342655
Nd  -16.963100  -7.054571  -2.159839
Po   16.695086  -4.625037  17.973162
La    0.505971   2.137978  16.961944
Eu  -24.810017  -8.679193 -14.027345
Ni  -20.951270  17.921394  -3.469218
Sm   -3.161007  23.907039   5.056092
He    1.707949  -3.920142  25.679176
Ca   -7.476978  12.336061 -20.854618
N    18.024111 -22.494161   0.219920
Sc   20.484737 -18.085655 -11.926142
Ir    8.109464  -5.071998  27.126425
Pd    5.319306   6.571603  26.524021
C     5.229553 -11.691353  26.499224
Pt   -5.903421  10.082395 -19.238417
Ho   -7.818420  28.438007   4.805628
Xe    3.889314  10.853456 -13.924089
F    19.888482  -0.661700  11.232812
Zn    4.163524 -15.391176  27.071749
Au   25.274782 -13.346477   5.491230
O     4.814173  -2.909226 -23.905637
Ce  -33.266922  -1.968084   4.464190
B    -9.759459 -25.581727  18.125253
Po  -25.635122  -9.889123  -3.590611
O    -0.247086  16.462894 -13.832964
C     5.672510  -6.388750  12.868276
Ta   -9.176371  -8.892536 -17.450163
Ni  -30.238452  -6.695294  -6.232252
Xe   12.552536  22.472793  -0.209265
Hg   -9.165024  12.165739 -22.329847
Gd    1.294674 -12.827586 -19.570968
Tl   -4.959347 -18.124864  -5.232929
Cl  -12.428684  -8.697896 -29.722197
Au   -4.628242  -9.264995   9.099591
Ag   -8.206986  -0.066423 -18.584486
Ag    0.606731 -22.557735 -16.048633
Ir   -3.732914 -16.549387 -21.818917
Pt   11.579872   8.158561  -8.861408
Hg  -18.645538   6.419553  -8.250143
La    4.474562  18.836979  -8.997868
Re   10.494880 -21.605990  -1.386986
Ti   12.204334  13.357943  26.066333
Si   14.365477 -16.509055 -25.274711
C   -31.382084   5.910970   9.131549
Pm    0.417521  18.291649  24.212458
I    -0.338132 -18.863383 -14.617839
Pb   31.120897  -7.231113   1.637924
Tb    8.654968   4.841442 -17.084228
Fe   -7.572996 -11.518259  -9.812279
He   14.838245  -8.399514 -23.358501
Tc   13.976957  21.773395  10.693255
W   -18.928908  11.279184  -3.000787
P     0.943491  25.395430  19.868721
Zn    0.505652 -24.731772  16.921922
C    16.344956   8.929279 -22.141501
He  -12.880207 -22.563791  17.528456
Pb   -3.979540 -22.021841  -7.023491
Te  -22.370548 -22.866013   3.033556
Au   18.631800  18.939612  -6.930841
Pm   20.451134   4.634507   5.120511
Zr   -1.472541  11.950164  31.183114
Re    2.559363 -24.797050  15.306683
Kr   -8.768453  -2.707393  21.256376
Te  -18.092174 -12.708765 -16.689260
Ne   17.720700 -26.716174   0.050843
Mo   18.964522  -4.807725 -20.017667
Fe    3.485836 -24.283419 -17.727342
Fe  -14.130939 -14.648877 -15.540779
B    24.613535 -14.304519  -4.402868
K    14.952080  10.114843  25.016709
Mn   19.520226 -14.444849 -15.444096
Ag   28.476953  -3.646249  16.690572
He    3.873023  11.911811   6.274425
P     8.814660 -24.727403  21.045534
Tb   -7.581411  30.969543   0.394441
Lu  -15.407606  -8.131271  -4.549093
Br    1.851866  13.695423  11.583899
Mn   26.338769 -17.666066  10.302408
Se   -5.276418 -14.349375  28.247404
Cu   28.611043 -12.802744  -3.418593
Ce  -16.713027   0.134645  12.906755
Cr   -4.453291 -18.219104 -13.199035
Co  -20.554221   2.061735   5.147219
Ca    2.846207  -9.833309  -3.303928
Cr   29.221663   8.516933  -8.831367
Ir  -16.908272   1.513363 -15.741400
Ti    0.778831  14.893766  21.990195
Ca  -19.493746  10.099052  -7.573114
Hf  -28.320195   9.355525  11.893894
Ta   -9.247584 -13.579708   8.218367
Os   18.960808 -17.156195  12.539196
Sc   -0.642665  25.853003  14.266757
As   26.780117   4.500847  18.282612
Tb  -11.667225  -2.553442  30.303163
Co   29.235828  10.499664  -7.444230
Mg  -19.699568   2.821143  12.504194
Cr    1.998479   2.544316  -7.372822
F   -19.396436  -9.488738  13.489392
Sc    2.373389 -25.553447 -13.139242
Nb  -21.864524  10.931572  -9.457508
Dy    9.619612 -27.213799   6.014799
As  -29.020391  -5.418307  -7.969790
In    2.203697   7.375242  16.118341
Kr   12.504988  20.886759  14.209293
Cs  -10.460933  -4.189236  23.778052
Mn   16.138207 -27.260560  10.546971
Ti    2.818283 -15.842022 -11.679231
Pb   10.045176  -3.202965  -0.568140
Po   21.392227 -18.683745  11.928821
B   -25.301702  11.960235  -9.512014
Fe   23.431511  -2.066582   4.340679
Ce    1.017469  -1.897623  -5.454178
Cd    6.262869  31.075105   6.093780
Ca   -2.994641  -0.204309  33.386191
Zn  -25.666775   2.771061 -21.003113
Cu    6.125235 -22.784525  12.881011
O   -16.707461  10.640790  24.426919
Ta  -22.527279  20.197219 -14.657121
Fe   11.651261  14.132862  -8.316807
Tc   18.252007 -24.942697  -6.399760
I     6.266394 -21.633704  19.565976
Fe   -3.394319  27.171088  -3.541573
Ce    5.306380  -4.819577  -5.799037
He   -9.352293 -10.199131 -27.303667
Y   -14.278410  -7.569648  20.848820
At   -2.079243   2.739181 -28.034790
Tb  -15.007527 -15.707518 -21.822404
O   -17.226540   9.259127   9.739555
Sr   17.409535  25.877027  -5.905039
Br    7.191689  -6.061736  26.216293
Mn    1.890437 -17.877444  17.163501
Gd  -31.157115   7.955669  -2.164229
Sb   -4.361078  -5.972552 -26.263382
Nb  -12.100852 -11.761502  19.688069
H    10.027384   6.481740 -30.501103
Mo  -18.136623  -6.116760  -1.129365
Pd    6.350324 -12.750639  26.809574
Hg  -14.866987 -12.329250 -17.204531
Sn   11.941801 -25.113396  15.095980
Sr   14.448341   9.402681  17.624909
Ne  -22.741178  -6.289231  -1.599545
K    -1.805493 -26.085431  -4.818483
Ag   -2.717959  11.722685 -30.774347
Er   13.998135  -4.890196   7.386560
As  -16.658830  11.481330  23.712451
B    26.622983  18.695316   7.184981
I     1.777448  20.737627   4.606917
Nd  -20.607110  -3.820526   9.524219
V     4.938157   6.730361 -22.015723
Na  -15.665536 -20.115374 -20.361551
Br  -13.593607  -0.611507  16.147222
C   -10.762711   0.732198   2.248995
Ar    3.715138 -10.225706 -17.100664
Ta    9.691258 -24.696858 -14.343330
Sb    2.926914  20.596400 -18.640924
Hg   18.134187 -12.674997  14.036588
Tb   20.036007 -13.430787   7.093833
In  -16.447442  18.265694  19.041137
Ta  -12.270061  17.112245 -20.260062
C     2.964744 -18.630204 -13.081915
Bi   15.846095  23.765203   6.260905
Zr   20.939466  -5.255860 -22.722122
Cr   -4.961419  16.060273 -20.907699
Ni   19.984699 -21.273678  -0.295305
V   -22.168715 -15.335165   2.429137
Bi   -8.525083  20.475039  21.726111
Eu   27.016856 -10.630021 -14.404194
Tc   -6.796754 -26.057559   7.297753
Fe    7.072105  32.614404   2.363809
Ti   16.285867  -0.312984 -21.131461
Hg  -11.448675  26.467957   7.123761
Kr  -24.141516  -9.407746   6.031389
He    7.772981   4.250394  31.853445
Pd    4.317832  -6.261636   1.842818
I    21.206082 -14.012404  -0.077714
Er   10.115837  20.687816 -20.132833
Ce   16.879853 -26.488235 -11.410503
Pm    1.927226  17.353918 -18.649371
Pd    2.898691   1.777720  28.807102
Ta    2.457240   0.987135  24.000940
Gd   14.150613 -21.662785 -21.368020
Rh  -29.231376   5.106060  -1.943735
Co  -10.563790  -7.020381  20.043195
Ba  -15.926752  11.904341  22.640393
Re   -9.161021  23.267592 -16.260189
Lu   -5.861285 -13.958310   3.202781
Na   -6.384054  -7.570810  18.273901
Ne  -16.703202  14.130926  -2.426728
Ga  -18.421935  -1.317337  25.386576
F   -18.083286  15.989004 -15.883117
S   -24.064200   1.402839  16.600780
As    8.072254   5.851624  27.263309
H    11.928985  25.373170  18.128350
As   -0.437155  -3.134216  30.965256
C    22.665634 -15.256159 -14.821414
Ti  -23.480376   0.491215 -20.573215
V    -7.105421  15.678520 -27.141596
Cd  -14.698940   9.496027 -27.577593
Sc  -31.299949   5.380543   3.497684
Ge   15.628902 -27.856225   7.171667
Rn   31.893135   5.818338  -1.036218
Po    3.725456  10.111714   3.585815
Ce   12.934290  18.246374  15.767975
P    -2.563142 -11.875524 -21.433717
I   -19.588405   6.089393  -1.345398
As   -1.760268 -15.231578 -10.514418
Ti   17.701490  -0.593480  -1.959885
C    22.285385 -14.311261  17.721521
Ne   17.518523  16.194051   1.213703
K     8.321163  20.517871  10.584362
S     9.137870 -23.832556  14.467233
He    0.149640  30.136911   4.588524
Ca   -7.760451   9.967695  10.125124
W    24.238596   3.004510   0.110141
Eu    6.405773  -7.075678  27.231588
Ho  -14.247715   7.828869 -10.553420
Fe   12.341955 -18.305755  -8.779088
Ga   13.206163  21.739641  17.044055
W     2.340977  -5.119366  25.364345
Sc   15.949183  -1.948188   1.287887
Xe  -16.205252  -0.562913  -5.915964
Co   22.506730  12.611011 -20.897199
Ti   -8.290767  -9.710983  10.950951
At   -1.597510 -27.445202   7.468115
B    -2.099300   6.255601 -13.272492
Pt   -1.456552 -15.267424  -2.099512
Na   18.887801  21.206729  -9.288082
Zr   27.566503  10.169227  -1.742518
Lu   15.244843  -0.863356 -18.927811
Ti  -14.715508   4.977756  23.148330
O   -25.127938  11.777724 -14.590969
Cr  -17.282296  18.433770 -10.944126
Gd   16.593638 -14.345180  -4.633603
Yb  -25.971322   4.793119 -16.168191
Ba   -9.118070  -0.802264 -17.428774
Ge    9.207233 -10.264965   1.579749
Fe   -4.188497  27.715045 -12.781925
Ni   -0.098845  26.847032  17.246061
Sc  -20.735393   2.399719   3.250707
Ne   12.071088 -27.713109  -8.539191
K    16.794336   1.242999 -21.007516
W   -30.965940  -0.819659  -6.989675
Ru  -16.045706  18.168099 -15.719344
Ho    2.395056   0.254757  27.320441
La  -10.695026  23.249272 -18.936509
Pd   13.365403   7.067613 -29.205104
Y   -12.332742   0.383110   1.767145
B    -1.647379  -0.297960   4.818354
Se    9.522290 -13.915123 -27.604840
Ne   17.448030   4.534185 -28.071463
Tc   23.781488   9.537602 -20.364848
Pb   -3.956752  -8.362472  19.002138
Gd  -16.649300  -4.146754   6.152920
In   25.711045 -13.195572   6.452965
Rn    8.048302 -15.016888  16.397373
Re   -1.935832  17.382525 -17.573758
Y    23.075867 -14.746114  -7.609888
Pd  -11.009104  16.607583  -4.248037
Zn    7.467004 -17.061232  15.073301
Hg   26.135623 -11.788231   4.865114
Pd   16.748257 -21.084618  14.112799
Kr   16.600307  -9.482312  19.424756
Ce    4.279842   8.792981 -20.760278
P    -9.828735  14.264448  -9.040687
Er    7.617197 -10.191115  -9.940276
C     8.360624 -12.456865  -3.773807
Cu  -21.523076 -13.163646  -7.483706
In  -26.692973  12.950583  -6.584259
B   -20.844697  -2.841805 -24.084610
Gd  -17.139643   5.439543 -17.500138
Zr   -6.683299  18.446009   8.519292
O   -23.790327  10.685793  18.239854
Sr  -16.071976 -26.349180 -11.926650
Cr   -2.520966  25.599390 -18.296460
Ni   18.103961 -27.849992   1.134620
Na   -2.776143  -4.422545 -25.272113
V   -21.298681  -1.831570  -9.196556
Rb   -2.068905 -10.514563 -30.758043
Si   -2.851283 -15.339683 -25.499548
Al   18.099906  20.283786  -4.618114
Gd    5.066125  20.852222   0.612338
Ar    3.116992  -5.423424 -17.441286
B    -2.109104 -21.503038 -24.455185
Po  -20.618710   8.901946 -20.607176
Gd    5.121116 -23.921626  -7.158488
La    1.283225 -16.542251  17.069348
Si    7.897536 -21.829954  -3.992783
Rh   13.615400 -22.566856   9.429665
Te   12.130684  12.440131  12.042629
H   -20.041383 -10.750987  11.114404
Al   -5.223907 -12.056152   9.931995
Zr   15.092811  19.634145  18.387214
B    -6.444140  -2.903260   5.679775
Sr    2.708423 -31.664336   0.229784
Ba    0.766181  -4.709795  22.661300
Dy  -20.477753  -5.359141  23.944051
Zn   -4.481245 -25.807957  -6.344029
Cs   -8.614097  -0.959442 -18.035071
Ag   -2.796606  21.378046  22.135370
Sm   -0.956954 -22.069737  23.004972
Ne  -20.643691   5.328220  -8.696323
Sr    1.214363 -25.321251  15.736128
Pb    1.726748   1.620224   1.552096
Cd    1.405495   2.564135  32.599452
Ti    3.133290  17.840140  25.539512
Ge  -19.678593   6.452416   5.371361
Sn  -18.355195  11.096805 -23.355301
Pm   -8.858236 -15.946693   7.319721
Tc  -21.572977 -12.889562   7.908136
C     7.155587 -20.913275  10.915741
Pr    3.273920 -31.687580  -2.368786
Zn   15.381720   6.552143 -17.926445
Pd   13.440912 -11.332642   6.226959
V    10.100346 -17.586153 -25.587526
As    2.544635 -10.158783  15.011482
Ar  -14.827123  11.892799  21.263049
Fe  -17.991998  13.024614   7.137790
Ta  -12.621600  -0.316132 -23.492200
F   -26.183893 -11.364710  -3.892437
Eu    9.544109  28.975855  13.282428
Tb    0.578938  28.538064  -8.641886
Xe   21.204942  22.222345  -4.023915
Dy   -6.607374  -3.504947  27.948103
Cr    2.962733  23.607190 -13.680671
Cu  -15.691689  25.111183  -2.259408
Gd  -13.954296  19.479365  15.307865
Xe    8.674677  16.721397  16.839383
Nb    0.597814   2.956891 -12.410086
Ta    6.983505  -6.811192  16.149991
W    30.750414  -0.812726   1.684299
Ar    6.591213   4.577975  -0.627587
C    11.223866  -5.432141 -17.767887
Tc   19.907094   7.934107   9.776362
Mo  -17.779621  -5.333305   2.209088
K    -5.002649 -23.064114  -8.951107
Pd  -18.954133  21.676180  13.129158
Bi   26.500473 -16.503027   1.430572
Hg    0.849884  -7.394806  -4.561287
O   -16.140922 -12.223984   8.012281
Co    0.744154  27.699123  -5.575504
Ge  -26.668052  13.214271  -5.781819
Rh   -0.594902 -26.637595 -11.181517
Ti   -0.101657  20.264645  13.835074
Sm  -14.375202   7.058308  -8.364172
Ru   -3.148238   1.651367 -23.088991
Eu   -0.660523  24.338261   2.058134
B    14.149988  -7.007899  18.271486
Ne   24.628873  -5.297525   4.440122
I     1.774477  14.545835 -13.275858
Hf    8.220494 -11.733812 -28.097772
Tb    3.689335   3.893944 -25.174846
Hg   21.342803  24.386477  -0.514878
Ru   -6.377274  10.486766  12.708854
Sc   17.927592  15.043298   1.103844
Ga    9.753366 -14.100209   3.412000
Se  -13.714347 -23.954879   4.253774
Fe    5.982106 -18.467203 -13.554014
As    1.159398  24.836538 -12.301600
Pm  -23.019713 -14.166761  19.271115
Tl    5.707883  -5.299397 -10.421139
Si   -6.087605   1.744784  10.063158
Re   -4.637645  -5.802921 -10.629593
Os   14.245928  13.265924 -15.811666
Fe   -8.663711   3.210432  20.776395
At   23.490644 -13.706605   2.653754
Re   -7.037196  29.812996   2.594731
Tl  -19.606501 -12.470132  12.360541
C   -17.577070  20.304383  18.989415
Sn   14.587789  -2.579945 -12.985848
Ni    2.002670  -8.858491  23.670954
I    -6.109722  14.768222  -4.018987
Ru   -1.552568  -9.714556  18.764885
C    -2.294255  27.102779   9.253129
Al   -9.123911 -30.598628  -8.436350
As   22.314302  12.843526   4.677953
Nd   14.616286 -26.415737  -9.698239
Cs   -9.284125  13.625081   3.222431
S    -4.356859 -20.732375  13.252070
K   -12.017677 -13.394309  -5.205607
In   22.951504  17.023510 -12.431680
Cl  -11.610810  22.352550  21.260143
P    -6.645198   8.238913 -12.145742
Re    5.268061 -19.797486  -3.666651
Al    8.958433   0.130850  16.287336
Pr   25.209995  -9.189510 -11.227208
C   -21.551758 -13.033389 -17.859329
As   22.368624 -23.238951  -9.654041
B    -3.010582 -24.254344 -18.682651
K   -16.532467  10.216866 -26.522824
I    -5.941132   5.101965  23.452131
W    25.049511   7.043493   1.454365
Pm  -24.844621   3.946210   6.257288
At   -6.571959 -26.980385  -5.919648
F   -24.907446  -7.857488   7.320259
Cd  -20.795830  17.792691  19.186351
Mo    3.958617 -19.558396  12.652964
Cr  -11.159667  27.970258  -6.422943
F    -5.957945  -0.396299 -15.130727
Er    8.190159   2.111760 -14.436266
Na   28.064463   7.957364  11.498242
Mg    6.406468  -6.459835 -16.062572
Eu    9.528354  -9.180887   6.940642
Al  -16.038580 -23.499709  11.726382
H     8.939638  -8.910204 -11.526824
B    20.704004 -11.076205   2.864553
Cr   -3.980521  23.234989  16.748797
Cr   -6.447836   7.839845 -18.735748
Ho   13.153889  -7.681838   2.416504
At  -24.624556  -2.172420   8.310818
K    11.851086 -19.651341  22.966799
Er    6.355222 -11.157686  16.892387
Cs   13.903058 -29.679763   3.268786
La  -28.224907  -0.860290  -0.760974
Ge   28.066186  -4.154469  -0.685941
Fe   20.123479  -9.550571 -22.951501
Mn  -11.769650  -6.090313  11.548611
Nb   20.818269 -24.976604   7.970961
Ti  -30.193946  -5.556960   7.254102
La    5.524322  30.595120   3.497645
Sn  -31.031625  -8.578204  -0.469836
Kr    8.102079  29.550856   1.949902
Sr   13.654182 -14.000040 -21.206105
Rn    1.949255  -6.816493 -15.268568
Tb    1.901559  14.081248  18.219882
N    -2.387678  13.883419  11.138861
O     7.563395 -21.384422   5.822112
Er   14.115212  -8.285030   2.025992
Ce   -6.236707  31.687838   7.398301
Bi    4.461097   7.129186  -7.414971
Cu   21.145763   6.731884  10.673870
Tb    0.187925 -17.519352 -12.978821
Re   11.273460 -20.990383 -18.025553
Lu  -14.476199 -20.345353  -8.012402
Ir   12.727610 -28.423323  10.223829
Cd   11.900463  19.999880 -23.614902
Si   10.899803  18.813119 -12.498197
Yb    9.983379 -21.424958  13.250250
N   -17.377718 -25.046385   3.527503
Ba   18.722013   0.586349  -1.258842
Po  -12.850172 -13.942279  22.024496
Nd    6.748255   5.701780  -3.528934
Te   18.295222  23.649134  10.599249
Ce  -20.170026 -22.025479  -3.441758
B    -6.397905  26.931857  -7.215223
Ar  -17.872380 -11.790776  16.445051
Ti    5.037265   7.860798 -15.410432
N   -19.131231   8.286432 -22.910233
Ne  -16.557457   4.539677  16.176064
Tl    8.614642   5.505706  30.539268
F   -10.964345   4.370997   4.847799
Ce   17.088023  10.527159   9.961617
B    -2.282919 -10.187724 -28.488815
Ce    3.365615  -8.910400  -7.029561
Cd  -24.718472   1.496955   9.101445
Cd  -13.841113  -1.763124  -1.760892
Tb   -4.673407   4.342321 -29.359872
I     1.713142  13.948573   8.124031
O   -23.319130 -11.279271 -10.271624
Hg    0.161891  20.593114 -18.504639
Cr  -13.233129  12.501249   4.168069
Li    6.770646  18.137019  -3.950249
Pd   -8.278593  -0.725801  -7.349989
Sm   29.512884  -6.165844   0.764570
Yb    1.389522   6.679490 -28.386140
Sc  -29.666768 -14.512135  -3.005207
P   -16.135634  22.256579 -12.114050
Na   -2.459347   2.386857 -29.622883
At  -15.621948  -8.643415 -21.798142
H   -22.234335  12.765655   1.889007
Br    4.013794   1.030738   8.825215
Kr  -12.608285  15.967256 -20.925788
Mg   -2.973981   5.104127   8.175276
Tm   -1.600869 -14.695873   6.833003
Ca   10.606361  -6.824532 -24.439004
Tb  -13.664274 -24.290431   2.350715
Sr  -11.257970  -2.216357 -17.125454
Na    9.406238   9.436237  28.759181
I    -0.114104 -18.325607  22.078795
Cs   17.553404  -2.866218   0.136542
Ba   -9.826378  23.005808  13.964116
Fe  -15.749785 -13.262325  -4.905478
B   -11.834572  19.007091  14.224765
C    21.175246  -2.216849 -14.063456
Gd    3.614044  -3.864212   5.767533
Rn  -12.945075 -11.885781  -3.225287
Ca    4.270865  19.853046  11.996991
O     9.795078 -17.465642  -1.353230
Eu   15.809958 -28.157038  -2.535022
Ba   14.442873  -1.183642  -3.425922
Pm   11.172050  14.511307   3.460232
Po    8.044767  15.459949 -11.047489
Au   23.102076  -9.407661  17.059716
Hg   -6.219150  10.680680  20.105310
I    13.028346 -24.808473  13.349764
Au   -2.822588 -21.807055 -16.266214
H    26.692844  -1.433632  -2.829854
Nb    3.688085  21.294280   1.450960
Cd    9.162548  18.722535 -16.554899
Ce   -8.711061  22.589230  15.704427
Ta  -14.796554  21.877403 -17.265153
Hf    7.402200  -3.538909  25.359095
O    17.693189  -3.655832 -28.406996
Br  -15.098814   8.123453  -4.123159
Ho  -19.725029  -6.742061 -19.796302
Y   -20.383470   0.673116 -20.105593
H     3.362408 -13.588216  -3.348245
As  -14.689651 -12.788465  10.601329
Os   18.047485   4.508833  22.280694
Ge   -2.885789  26.254176 -17.317433
Se   25.761490 -15.467273 -14.448856
Co  -15.325414  -9.352277  28.239241
K    11.718386  -5.386738  24.106727
Tl  -10.255395   4.117717  23.617513
K    18.874154   2.831561  14.663127
Dy    6.965624   9.557047 -29.838035
He  -18.331683 -23.850643 -11.864014
S    -4.792943  27.802294   6.193170
Fe   22.342125  -1.040332 -24.510739
Ag  -11.683697   9.946729  12.844558
Br    0.222498   1.954612 -30.996391
Cu   -1.493873  -6.468865  -9.213113
Cd   16.889894   3.223782 -28.147029
Li    3.142855 -22.404182   1.876180
Mn  -18.793961  20.658284 -18.408509
V    18.327224   7.505187 -12.625340
Yb    0.367946 -17.015447  -6.529242
Ru   -5.407482  -1.258013 -21.174386
Tc   19.080465  -0.603874  27.067087
Ce    9.635491   1.766892 -21.995961
Er    4.553559 -19.968038  18.055662
Re   11.211772 -30.823208  -5.526941
P     7.692358 -19.923016  -1.542848
Xe   16.643640  -0.716144 -24.644240
F     1.148166  14.253130   7.508813
Os    9.575582  17.134797 -15.812396
Ag    5.586210 -11.984184   3.663214
Ta   26.639123   9.815114 -15.811374
Li   -2.094670  26.525721 -15.386209
Tl  -24.699614  -4.969187 -10.770555
Ti    6.836162  29.719038   8.746268
Br    5.828945  26.600660 -13.717995
At   18.227598 -25.204090  -0.138178
Ru  -26.266687 -10.493665  -9.749287
Pm    9.422292 -17.750779  13.220673
Pm   26.256691  12.830241 -12.717654
Ce   -4.092035 -12.428606  25.985785
Pb  -26.201619   7.255760 -13.409411
Ar  -21.399548  16.835226 -10.465971
Yb    8.072441  10.894622  15.112253
F    -2.784557  24.322600  14.610298
Br   18.317545  -4.426150   7.787202
Zr  -10.955611  -5.118864 -17.090083
Hf  -11.428570  18.661876 -24.681958
Os    7.200594  29.301879  -7.894978
Na  -27.138627 -17.605153   7.695902
Ni   29.847395  15.357333   2.404509
Gd   -9.741227 -26.256739  11.270090
Cr  -16.449792   3.759833  18.539328
Ar  -26.336842  -6.416260  -0.806541
H    16.587137   7.950268   5.757836
Ge   15.168052 -21.398943  10.468794
Cd    3.019378   4.674588  -0.802406
Pt    5.545181  12.176024   8.591332
Ti    4.883535  14.808733  20.649527
La    9.497634  -6.748365 -27.836873
Rb  -10.129991  25.201001  -9.773180
B    30.275440  12.458404   5.379726
Tm   -7.045426 -23.768027  -9.865363
Ba   18.347450  -1.335810 -25.362546
Ir   24.677995  -0.922451 -15.227782
Ar   29.954850  14.559013  -4.674269
K     7.487820 -19.500472   9.777990
Co  -12.649825  16.296198   0.904872
Tb   17.221407  -6.976015 -12.914075
Mn  -20.164645   3.415904  19.270951
Tl   15.923892  -9.820751  25.794603
Li   -9.583206  -8.104181 -17.371145
Hg   27.624544   7.447143 -13.087223
Be   -8.614447 -12.410717 -15.610526
Dy  -13.866397   9.450843  10.562895
Ir   -0.694129 -10.893669  19.351880
Ca   16.054858  20.652928  16.024329
Dy   -3.356872 -32.304316  -5.031052
Ba   10.329263  22.957929 -21.343965
Sr  -18.286825  15.166788 -13.434377
Po   25.774063   1.339882   2.037804
Er   -0.361676   5.263215  15.407917
Mg  -20.735403   4.469750   6.580373
Pd  -22.889662  17.849304   0.539998
Sr   15.348553   6.817962 -19.903572
Kr   -9.043416  -6.750962  16.386264
Bi  -10.427836  24.130629  -9.264306
Ge    0.469731  -4.356131   5.190698
Al   -3.171007  22.423770  10.511021
Ta   -2.354487   4.330376 -23.243516
Ir    5.587813  -2.399615 -22.217061
Po   -0.566455 -12.714780   6.206512
Er   15.670462  17.900524  -2.646719
Er  -20.293790 -22.303025  10.756075
Be  -20.703246  21.776810  -0.728240
Cs   -5.361943  -3.244721  -7.522444
Hf  -22.882535 -14.584749   8.844213
Ge  -24.818428  -2.682423  15.150228
Fe  -26.575915  10.129536  -9.623753
Cl    8.097886  14.770388  11.002101
Sr  -14.115569   3.593342 -15.948310
Ar   12.073910 -20.388050 -19.480906
Ba  -20.733703  -3.269894 -22.368666
O   -25.214863   9.941534   0.368405
Pd    3.205496   9.860518 -12.472132
K    17.086370  19.773080  18.900253
H    -4.289163 -20.483381 -22.232329
Re   17.657342   6.688856  24.642150
Kr  -19.692365   1.488162   7.334058
B    20.500289  -0.156972  -8.802332
Se    9.921995 -19.763901 -14.223476
Xe   -7.328308   8.510881  -6.670293
Ta   29.699552   5.449363   9.506842
Ho  -11.027416  27.313267   9.723210
K    13.989235 -21.569680  19.468065
Fe   21.437661  19.684593  -1.335438
Co   13.702404  27.687902   1.594058
Gd   13.562789  18.592447  22.198395
Pr    3.638166   6.796345  11.756376
Na    4.392766   7.907690  -6.176834
B    24.132792  -6.547284 -19.691698
In   -5.890409 -11.664294  -4.004670
Ar    3.427744  -6.568812 -12.707323
Ta    1.982918  -9.599640  17.015795
Y   -22.316744  -2.711492 -15.914691
Ti  -17.752802  -7.496925  20.234716
Tc  -21.746644  -1.503644 -12.577144
Ar   -6.379089 -31.084816   3.643022
C    12.066029 -19.205807 -22.816249
Zn    6.447260   3.893906 -27.497106
F   -25.931974  -6.951072 -10.018195
C    -1.671802 -23.314122 -12.098514
Er   -1.648756 -20.906076  18.262647
Nb  -22.541505 -20.428434  -2.635828
Al  -20.561903  13.873524 -16.939749
Y    -9.757609  28.403014  10.773320
I    -6.124454   0.746123  20.318141
W    -4.328931 -22.570877  -6.203783
Cu  -12.293983   3.525441   6.398529
Ar   15.906099   2.167556 -10.632218
Rb    7.338677  30.908923  -1.087102
N    16.790675  -6.086757  21.601985
Po    7.473545  24.671267  -2.197487
C     1.823874 -24.141123  18.976236
Si    9.529866 -11.373749  -2.465939
K    21.925147 -21.445142  -1.124371
Zn   17.681844  -6.505417  -8.427157
Sm   -0.653501  27.070177   8.010126
N    14.423286 -15.157213  16.671225
Se   -5.295790   3.241207  21.789968
Ag   -5.463989   4.006121  31.034343
At   -4.904644 -18.724712 -26.736298
Te   11.191628  24.807344 -10.349626
Sn   -4.889658 -12.439225 -30.545844
Ni    7.598105   4.185195   7.158100
Co  -19.753958  20.247956 -15.203405
As    5.856168   9.915863   3.745003
Tb   10.693561  26.063527   2.367440
Si   14.269509 -15.107283 -20.137919
Br   19.329667  10.209390 -20.635611
As  -12.416285   8.948417  -9.210818
Ca  -15.369378 -11.474927 -25.732535
V   -28.256181  -4.248200 -14.059996
Hf    1.547860  28.098965 -11.095563
Li   27.187953  10.292237  12.381432
Ti    6.411887 -12.422044 -12.933470
Hg   -7.841598 -27.758849  -5.235047
O     6.283232  15.651579  27.506520
Re   -2.736211   0.943677 -22.498661
Sm   28.366779  -6.583737  -7.222762
Cr   -1.482876  22.919404  -2.883938
Os    2.035524   8.519417 -23.442334
Pt    6.177058 -19.714054  -4.037715
C    28.252547  13.047081  12.826776
I    -5.176297  20.786070   9.994126
Rn  -14.210147 -18.325605  23.104747
Sb   23.784891  20.997291   8.219713
Tm   -4.426142 -24.764059  -0.053502
Ir    8.233141 -21.284109 -22.499457
Ta    3.056951  25.556516 -16.296425
Y    -7.386470  10.235379  13.728111
Sm    2.613032  -7.841424 -21.621347
K   -14.373448  10.083885 -14.464876
Mn    0.802008  17.117276 -25.545246
Tl   15.596147 -20.108835  10.631512
Ar   -3.187172  -1.711509   4.848799
Ge   15.068599  -1.515815  18.694888
K    13.229668  13.692959  25.173431
Si   18.458031  23.358542  12.250178
Lu   28.764357  -8.215334  -0.178957
Xe    9.857393  11.571668  -1.441765
Nb   -2.940635  -7.408504 -18.679154
Ge    3.189186 -24.683818  -3.922988
Dy   -4.252203 -32.798147   6.340264
Xe   24.119539 -11.294139   7.690108
Se  -10.436937  -0.180151   6.414221
Fe   11.352484 -13.090171  -8.848866
Po  -27.906812   0.519347   8.176855
Er  -16.627542   1.984262   0.248239
F   -27.453058   9.848683 -16.724495
Sn   29.776634  -1.717101   1.374934
Te   -7.925629   1.325076 -27.799331
Bi    9.291249  18.578133 -24.624491
Dy   -4.268658  -2.525097 -17.705653
Sn   -6.612524  19.718206  15.202711
Mn  -12.968043  19.012435 -15.858955
Ca   -8.220436  30.700344  -2.434220
Fe   -1.140207   0.476010  24.851719
As   15.633012 -14.008849   4.923952
Li   33.172480  -3.709628  -0.681778
In   22.134842   6.181328   7.146001
Ne  -21.031593  -2.407110  -1.335216
Pt  -14.591403  25.500270  15.649991
C   -16.893681 -17.344279  18.882929
Lu  -27.391031   1.887083   0.326509
Cd   -2.647391  18.002029 -11.673304
K   -26.228396 -13.660456   4.811473
Er   11.767508   2.447223 -21.882269
Ta   18.736810  -1.879317  22.197440
Ge   -7.093159  21.160355  20.210943
Sr   19.475522  17.038549 -10.561313
Si  -17.560234   0.210440   8.337612
Lu   -2.833480  10.842218  -7.443230
Zr    7.636547  23.082139   3.464658
Ta   19.209019 -16.029421 -13.274936
Pt   16.982140   8.799500 -11.437652
Pd  -13.089942 -12.820054 -24.949264
Sb  -27.741283  -7.894442   3.212833
Eu   21.075473   6.413123  -4.648159
Sc    0.258386  21.135808  15.878037
N    -6.231921  12.351312   6.831599
Rb  -19.763477  10.405605  10.458347
P   -17.781697 -18.033773   1.063582
Ce   30.851612   7.931981  -1.894786
Ho   22.527897  -8.518391  -8.531250
Sb  -18.888773 -23.751919  -7.258006
Rb    5.183262  -4.091701 -19.863801
H    16.147158 -18.173040  -6.290004
At    8.553635  22.479654 -14.495379
Si  -16.134853  10.260034   3.162528
Cs   -1.335675   8.823084 -10.067806
Mn    3.391799  29.684882  11.167703
Sc    5.677730 -27.152139   7.490636
Ni  -17.652015  -2.942384  -1.740071
Tc   15.766602 -15.331481  22.604721
Nd    3.534427 -13.274739  15.314995
Pd   -8.491377  -5.403030  -6.842803
Rh  -26.079934 -17.457696  -0.521339
Y    22.957509  -7.673640   0.848063
I   -16.992160 -14.237598 -11.169292
Sb  -14.707500   7.162744  26.668631
Hg   15.999205  -1.471294  27.749188
Au  -26.196368 -11.788798  15.508821
W    -0.137981 -23.449644   8.834869
Hg   -2.155130 -29.727020   7.268301
Au  -28.788613   2.243500  -6.200938
Pt    4.412236  20.134495   7.819556
P    13.935958 -24.777903   3.509561
As    9.864750 -13.842714  12.752732
Mn   19.515055   5.316276 -19.081453
Cs   -2.231387 -18.085348  -2.300557
Sc   21.979807  12.843266 -16.250275
N    -3.050286  15.414509  -9.043370
F   -10.361805  -1.725044  -5.493538
Yb   -1.329633  -6.113874   8.573459
Tm    3.133129 -24.400053   1.204322
Be  -23.068767  10.738609  10.526835
Sr    6.672542 -18.615364 -15.083441
Ir   -2.148343   3.736268  13.439649
Au    8.676456  -1.279839  12.587976
Ne  -27.770383  -3.566261   1.847786
Na  -14.562055  19.655862  16.919839
Re    2.328089   4.565513  -9.837884
H    21.508056  -6.836994  -2.552366
Rh    3.903621  -6.441514  -7.160239
In   11.755320   5.393366   3.807941
As  -15.223669 -20.223939  15.743603
Tm    4.351167  -3.493137  32.983261
Tb   -9.384875  19.717938 -19.242060
Au   17.076529 -25.261496   4.454889
S     3.796807  16.586970  11.798343
Ni    5.464155 -12.788656  24.184376
Xe   10.930355  -7.300469  28.156038
O   -18.310472 -13.345123  -1.056953
C     3.319186  16.818576  27.417881
Cl   -4.283020  12.330552  19.703508
Hg   -4.857787  27.226996 -10.362220
Sr  -13.319457   2.184958   7.396927
Xe   23.863381 -13.184870  12.080308
Bi   21.026475  -2.659362  25.728571
Se  -20.675806  21.891088 -14.633360
As  -15.292698 -10.324436  -6.898955
Tm   -0.184282   9.735701   7.475789
Cl    7.679446 -13.594493 -21.848175
Br   15.326697 -11.595905 -15.915515
Tc   -7.960221   9.590154  -9.567590
Pb   17.352763  -0.517091 -19.852710
Li   22.211265  18.847137   5.399720
N   -15.487113 -14.861698   0.735137
Yb   -4.340835  -9.919827  -4.462665
Cl   18.407261   6.043261  10.964943
Cr   19.004626   9.034722 -19.978617
Ta  -21.030026  15.783513  17.601748
Y    -3.896531 -23.848625   6.041582
V    15.190054 -10.103687 -25.087732
V   -17.184992  -8.113300 -10.234227
Xe  -15.819622  25.124257  -3.284819
Pb    2.250724 -18.005892 -14.818924
Eu   -3.223422  -2.559966   1.842364
Tb   15.211235  -2.873423  -9.700277
Ge   22.326329  12.610647 -17.202049
Ru  -13.869718 -13.923609  -7.860106
Sn  -11.976637 -24.523738   3.820434
Pb   -0.327269 -16.209137   9.061952
Re    9.610890  11.918219  25.396934
Yb   -6.519652  -4.832682  -6.190003
Ag    1.313663 -15.342828  17.819333
Nd    0.303784  -6.684320 -25.545356
H    -1.966976  20.409766  -7.219401
At    1.480295  -5.174036  -6.662724
Nd   -3.322753  13.853943  -2.446905
Ta  -27.161172  -4.378154   7.637320
Ar   -3.221729 -13.413334  17.752037
In   -1.805515   1.836536 -26.266175
Hg    5.816701  12.550899   9.790576
Er  -23.500496  22.123236  -1.068633
Ho   24.934545  -1.646109  15.541021
Pm    3.888650  -9.452283  15.917234
Be  -11.182727  10.595523   0.544938
Pt  -18.722174  17.650662  10.932534
Hf    1.800067  -1.012048  30.139170
Ca   -5.746593  17.389764 -19.395561
In  -15.233197  27.352838  -0.841877
Rn   -4.781612   8.047221 -32.003862
He   17.752197  -3.773708 -20.551571
V   -12.233573  -0.920127 -14.712168
P    14.106766  23.071808  11.697484
Kr   13.319740 -22.870184  -1.861926
Fe  -15.369009  14.658616   9.143185
Zr   -4.069633 -31.856814  -1.210298
Sc    3.686142  -8.134000 -27.931207
Ar   -2.729509  -5.905335 -19.249447
Ca   -6.152210  17.284031   1.891002
Ge    6.132181  12.747096   2.460778
O     5.478042 -10.183537  -3.861472
He    8.706874   7.352263 -10.985450
Co   -4.596645  22.198714  22.598837
Y     8.458610 -15.663335  15.117881
Ga    2.082299  10.558971  24.241163
Nd   -5.469762  12.613810  26.367689
Tb   28.863634 -12.090891  -7.744110
Pd  -11.642029  10.366568 -28.933700
Ag  -10.711551  -5.602041  22.674013
Tb   14.969324   3.162812  11.614428
Sm   -8.530202   4.912294  25.844774
Ir   -6.889717   4.995241  -5.437721
Zr    8.112500  -4.002705   3.854612
Li    1.194261  12.511458  29.225723
As   22.360409   3.983049 -22.682899
Kr  -22.357840  10.727769 -22.631137
Pr    1.645193 -32.382099   7.970346
Ne    5.369810  -0.820529  25.216382
Pb   -5.909644  12.390125   5.875155
Ga  -12.217990 -17.160950  17.340289
Fe    2.967488  13.156674  21.282125
Mo   -2.643190  16.264859  23.513749
Ho  -22.045640  12.842533 -19.103750
Rb   15.717737   5.121523   3.446667
W     2.005611  13.724433 -19.297572
La   24.053213  13.603974   6.927849
C   -23.493346   5.211300 -12.405371
K    27.633624 -15.637697  -8.086996
Al   -6.427415  -0.904458 -13.414997
Cr    3.813314  -7.098908  15.247897
Cs   27.607462 -15.310589  10.878771
Pd   15.143618   9.070168  -6.753437
Sm   18.523328  -4.991120  -8.446382
Sr   -2.097265 -22.643246  10.031220
Cl   -1.472891  14.646833   8.917184
Er  -14.632547  17.962544  -9.498904
Bi  -18.987652  -5.481561  -0.380636
Mn   26.929569  18.173027  -7.184380
Gd   -8.168791  -4.165441   6.054012
Ho   -0.466353  19.534193   2.814775
Tm    5.439203  23.109290  -8.898316
In  -10.792603  28.080785   9.074800
Sm   29.023376 -12.622786   6.961961
Na    2.006228  -3.688885   0.309795
O    -4.229665  -4.404263  15.761636
Cs  -23.425019 -20.530341 -10.032436
B   -16.194727 -12.058278 -11.658132
F   -11.758351 -15.807613  22.009511
Cr   -6.743139  -6.746989  15.380598
Y    -6.969349  31.781391   6.756478
Pb    0.055725 -16.637015  11.666848
H    -8.853400  29.298487   7.545010
Ho   10.236717  13.442208  -3.587673
P     2.378120 -13.883209 -10.077848
Be  -19.106080  24.765239   1.812982
Cl   24.213911  -3.971337 -16.267149
Tc    7.465638  29.798790  -4.255315
Hf   -8.207028  12.742010  -3.303685
La  -22.607573   3.225090 -15.513932
Mo  -18.208646  19.861170  12.813172
W     6.669641 -20.526157   5.523167
Os   -5.423855 -15.060711   0.782992
Be   -3.006202  -7.656345  19.535960
Hg    3.664378  29.595431  -6.243045
Cr  -27.419031  -1.957619   0.129423
Tc    7.465950 -20.703831  14.780111
Eu  -10.624714   9.186710  -3.937252
B    -4.691196 -25.498668   9.130700
Hg    3.242920   2.509715 -26.214526
Po   -4.680455  17.123819  -6.378815
Ga  -20.177892  -3.942902   4.954739
Cl   11.691239  12.979514  20.822011
Ge  -13.347156 -20.048838  17.648565
Eu  -15.695619  -1.169092 -29.472018
Mo  -12.681138  -7.244643  27.219592
Y     2.098018   3.947390  -6.484944
Ge   -6.166250 -11.408197  -0.524327
Ho   29.145197  -1.259942   3.891458
Zn  -20.843550   0.055136 -21.723980
Rb   -5.711704 -10.450692 -29.327109
Rn   20.934378  16.464224  16.036322
Y   -13.255292  -1.187051 -15.661680
Bi   -5.169141  -0.897824  17.128774
P   -24.422858  -9.188932   1.487369
In  -15.849855  -3.911757  -7.547007
W   -23.796885   7.440996  16.361681
In    1.430073 -13.848960 -17.876959
Cl   10.678694  12.251724 -24.252753
Tl   20.573194  -3.870120   8.912332
Os  -12.489895   8.476122 -20.333699
Ne  -21.837114  13.684483  12.583420
Tm  -22.046622  24.731472   1.485088
Se  -25.188628  11.777834  15.813226
Ru    4.532765 -20.130094  12.004701
Tb   -7.483055   0.097654 -11.028672
Sm   15.448280  13.407407 -21.031888
Ce   10.250766 -10.524908  20.429853
Pb   12.384406  10.411610   1.467662
Ca  -11.913619  13.805798   3.044158
Tm   15.642041 -23.679074   8.983416
Sr   28.699705  15.831211   0.190564
Xe    7.054926   1.515339  -5.120348
Xe  -11.789505  -7.679338 -26.427597
O   -25.972519  11.080709 -16.199767
F   -31.940061  -6.511557   7.709286
Si    7.444237   7.346984  21.098041
Si   -8.198237 -18.046118  -0.537791
Pr    9.687200 -22.586612  -2.826718
Eu   14.864811 -17.796133 -16.840252
V    13.828876  12.141967 -25.973119
Hg  -10.704836   4.001887  -4.694218
As  -27.343520  13.364195 -12.760959
Gd   -3.325358  15.353987 -16.904162
Br   -6.019727  30.754364  -6.153148
K    13.356219  21.016777  11.345486
Y    16.451324  15.693111 -13.459058
Tm  -15.937038  -2.380095 -14.075815
I     3.444668 -19.772167   1.672565
Se  -15.811268   8.425285 -15.326617
Xe   15.653677   4.364955  17.647264
Cu   27.299499  11.180224   4.386387
Eu    4.899811  23.012809 -16.500401
Au    6.459837  -4.865413 -30.384878
La   -7.423306 -25.590539 -15.663168
P    -3.796487 -27.522044  18.911556
Ho   15.285821   1.935049   0.901337
Ce   29.222859   5.044167   6.492631
V   -12.596085  -7.257328 -22.941215
Ag   13.218187  25.721970  -3.249825
Fe  -10.663602  25.750930  10.853028
W     8.526938 -27.549087   6.341181
Co    5.709717  -9.002934  15.065479
Sc  -18.334367 -17.577886  -7.693381
Pb  -21.466627 -20.669543  14.674333
Nb    4.940002  16.358456  12.329426
Al   11.942924 -11.957648 -14.166746
Ga   25.367866  10.238600  -4.981679
Gd   14.998398   4.345844  26.370262
Y    -8.433557  14.862145  16.478482
Br   -8.800843  -0.866513 -23.040715
Nd   14.213764   9.373601 -13.816488
F     9.654702   6.378937  13.335022
K    25.391870  -6.503019   2.152430
Re   -7.255296 -14.187419 -19.835054
Ar   -0.987181  -2.602011 -12.042585
Nd  -17.275616  -3.708980   9.645222
Co   10.886535  -8.980455  -5.986070
Na    0.655174  -3.532496   3.666755
Cr   25.533498  -4.963291   6.620403
Ru  -15.322684  21.785651  -4.521163
Kr   13.396593 -18.531013 -15.967201
O    19.199273  -3.865214  -4.981550
Ni  -16.551818 -25.133405  -1.639816
Os   25.229155  19.793231   7.446628
Yb   -1.325109 -15.961287  24.765118
Xe    9.823863 -10.905529  10.135818
Al   29.195224   7.003962  10.826005
Ho   12.715683 -22.729950  -4.022150
At   20.107282  -3.585763 -20.040220
Ag    2.458720  14.176466  28.698083
Zr  -15.867929  19.200565  12.327523
Re   23.420844 -14.305599  17.964465
Mo  -16.866555  -8.015977   5.725692
Be  -27.672914   0.101454  17.189600
Sc    9.277173   7.590198  -3.597981
Nb   13.980563  26.315578  -4.360256
Dy  -21.288110  -4.545484  -8.086939
Y   -14.767243 -18.701112 -14.627059
Hg   18.479836 -13.391776 -23.405108
Mn   -2.273737   4.350248 -11.818548
Ag  -26.592555   6.065243  -0.563954
Cl    6.595938 -21.943074  13.486116
Hg   17.186615  13.419286   3.231478
Sn    9.729782 -20.631453  -0.082792
Xe    7.598732 -28.347838 -10.726064
Nd   13.154765  26.452135  -7.202152
B   -27.510004  15.185707  -0.831946
Ag   -5.910749  -0.757012 -25.297791
Nb    3.800062   1.630264 -27.413390
Mo    2.291429  -0.923567  -3.409397
Hf  -17.321307 -13.789582 -21.085395
H     3.316928   1.182197  -2.234000
Cr   -6.454028   8.957710  -3.193449
Mn   25.063801 -20.769746   3.465971
Gd  -25.225322  15.738042   0.204851
Cl  -25.323970  10.192989   5.978982
Tb  -11.312724  27.665153  11.635705
Nb  -11.030150   0.309454 -23.637247
P    14.771600  20.079916  16.066220
Pd   -0.016050   5.743128   1.355462
Kr  -14.738466 -23.795901  17.559619
Mn  -17.282622  10.930512  19.896586
S   -16.679398 -16.522787   7.148596
Ca  -14.012369  -7.009901  -5.843528
Ar   23.329165   3.953471  23.329565
Ni    8.349194 -29.301073   9.352924
Ir  -26.948092  -4.058220  17.498151
Y    21.535445 -15.093725  -1.753681
Co    8.033281  12.142953  13.891643
Sc   23.341010  -8.271612  -3.663623
Po    6.833018  -3.058798 -10.394953
W    18.651778   8.618945  26.147719
Ga   -5.266265 -11.819347   6.409902
W   -20.680706  22.026002 -13.660203
Hf    2.749727 -12.761569 -23.596634
I     0.249882  25.090676 -21.805414
Au  -10.995686   9.859786  16.290528
Sc  -15.622293  18.248446  -3.989833
Ir  -18.473542   7.206968   8.875006
Ba  -21.297853  23.372164   6.787854
Ga    2.558902   7.972578  20.810835
Cs   -1.653573   4.592645  -1.448705
Tl  -27.916615  -5.878485 -10.285773
O    -2.621898   2.939310   9.448723
At   12.341734  -5.279526  21.429854
Mg    1.855535   3.458996 -14.747653
Cs   -4.249207  -9.318520 -24.365450
H    -2.064929  -7.092038 -27.990467
Yb  -14.007374 -10.457396  12.078590
Ba   18.587609  -5.359089 -10.823418
W   -29.371236   7.480007   6.393325
As    0.762665 -17.748111 -27.912532
Pd   -5.146517 -12.098023   2.568873
Y    -9.800825  -1.689940  11.240216
Y    15.634153   5.523474  27.505576
Mn   -4.008251   8.359952   4.163821
Tm   16.811488 -12.648217 -25.745339
Na   13.689368 -15.817001   9.621222
Dy    7.295568  11.761858  18.691638
Cl    4.639385  17.900632  12.305633
Si    2.332229  31.306251  11.931554
Ni   21.694868  16.050338  -2.446845
Nd   -5.140927  -0.277755  23.143557
S   -12.758093  13.150242  -0.635264
Sr  -10.171903   6.177049   0.245837
Xe   29.663362   4.691807 -11.639520
Tb  -11.235639  22.184913  19.700792
Na   19.207418 -16.850617  -6.958886
Fe    4.633058  19.133904   9.203630
Sr   26.667211  -7.719462 -18.807049
Cd  -14.092966 -14.655372 -25.647573
Tc    1.348083  -7.095418 -26.912531
Sb   -5.150380  -8.542956 -20.295958
Ti  -15.063077   7.564996 -22.488254
Tl   13.288919 -24.986479  -4.903907
Pm    2.760802  -1.259193   4.626682
Sr   11.887599 -12.377967  -9.447051
Ca    8.220026   8.503526 -19.383046
Mg    2.090221 -14.621086 -25.670598
Yb  -18.460358   2.662368 -27.425423
Gd   -2.282599 -14.053410  19.346597
Rn  -11.261054 -14.578023  -1.515944
Nb   16.333345 -15.965148  -1.005340
Hg    5.203367  24.212545  14.237835
Ge    4.667384 -27.419783  -7.308387
Pd  -18.817792 -18.712825   2.954832
He   10.939008  18.755403 -20.319603
La   12.311025  13.688450   1.348595
Te   14.725115   9.176971  26.932149
Cs   -7.368390  11.546215 -29.938521
Se  -18.495185   3.376745  -9.954482
Li   -4.445062   7.969641  -7.248155
Zn    2.179714 -24.840993   1.290232
Ge   12.943904  26.095038   1.500639
Br   11.822912   0.464672 -26.156280
H    12.376109 -20.191134   8.846460
Ta   13.967859   5.874723   4.292971
Yb    4.625550  30.116340 -12.058027
Eu   16.228152 -19.419052  19.568387
H   -12.538005 -11.057901 -28.288883
Sn  -14.524371 -23.202738 -15.128967
Na    4.558413   1.695216 -33.224186
Br   21.463342   0.230838  10.076062
Cu   -6.422023  -0.205222 -25.590954
Xe  -16.441572 -10.794934 -16.306400
Au    2.339955  26.396611 -11.317628
S    -2.836375  28.225544 -16.090340
Fe   22.139733  -8.108048 -11.375089
F   -20.542393  12.353617  -4.977044
Au   17.418085  10.324975 -24.716624
Sm    6.952593  -9.000772 -25.540853
Kr   15.111353  13.063164  18.632628
Co   -8.155573 -13.849045  23.958633
Na   31.983801   9.381881   1.245403
Er    0.709315   5.877320 -15.404406
Sb   21.430199 -15.965972 -16.356485
As   26.783376 -13.634853   6.842804
Na   -0.081907 -16.160689 -10.917163
Te  -19.165919  11.438675  24.523189
V   -20.307357 -23.420526   6.326180
Dy   25.418733   9.490420   1.885520
Mg   12.487133  -3.578174 -30.553912
Ca   12.958945  13.437984 -11.216633
Br   13.609188  -7.721293  25.166538
Ti    6.799336  -5.428884  28.479320
Bi   -2.919378  12.693553   6.672515
Nd   -9.999042 -15.909808  16.915551
Mn  -24.408952  11.986716   7.417480
Os  -26.235683   6.960122   0.434133
Pd   18.305850   1.427750  22.463074
Rn    0.424925  27.146853   5.014834
Na   -0.300030  25.495146  18.693218
Ar    3.064427  -6.469070 -25.720935
Pr    4.169548  -0.072043 -30.829292
Te   -9.038584  16.846426  26.930345
Cu  -26.615066   5.140386   4.109838
H   -14.437858   2.005814 -29.345959
Be    4.522476  16.104824 -22.147351
Be   -6.594693  22.457269  -0.250608
Ar   17.604684 -21.699300  -4.576710
V     9.482597 -11.663565  -1.309868
Au   -2.856038  -1.492851 -26.587141
Y    14.413088   2.178330  10.796861
K   -13.110090   7.204248   1.315995
Si   12.673449 -24.870915  18.622080
Ag   12.680779 -18.655969 -15.275419
Ga    0.626545 -19.645398  27.017112
Rb  -29.157696   3.884430 -16.303591
Pm   18.082772 -23.157186 -14.357236
Ni   13.976954  17.936714  -1.926216
He   20.080277   0.735208  -5.161612
Eu  -24.241155  -7.653127 -19.523656
Ti  -28.774008  -7.518353   2.502094
Au   12.613637  15.160216   5.023322
Sc   11.541539   3.919457 -28.486562
Cd  -28.354260  -6.666536   6.019167
Ni  -25.982537 -11.982026   3.947073
At   18.918360  20.819846  -3.980916
Pm    6.990859  27.673095 -14.550413
Mo  -30.189739 -12.859857   7.038927
Pm   -0.638244  -6.915282  12.297051
Rn  -20.889884  -2.914235 -19.611860
Fe  -23.713423  -5.422982  15.167029
N    20.373337  19.173963  14.035823
Br    9.542757  15.908603 -10.995975
Tb   -9.258045 -14.552687  17.226210
Sr   -9.250339   4.130869 -20.754517
Xe  -27.275584   2.039704 -13.847143
Zn   10.550072  25.995609   4.724074
O     5.701232  10.340823  12.639775
Y    -1.710880 -10.816197   7.279944
S     0.939267  27.083312   1.472334
Er   -1.041675 -25.356235   4.932535
Nb    1.469700  -0.738773   6.833145
Rb   12.690333 -20.048304  -4.230530
Nb   22.368208 -17.117212   0.459421
I     9.895588 -21.220871  -5.440008
O   -12.268765   1.960424 -16.243130
K    -9.876081  -2.083697  16.424823
Hf  -17.048044   3.426348 -28.046447
Mo  -19.045652 -14.866694  -5.035290
Au    9.040140  16.022233   8.149613
Mo    3.411593 -10.025264  18.677636
Tb   18.308454   6.273450 -14.473155
Tc  -12.953247 -13.897298   1.511570
Lu  -11.693645 -11.359542 -16.950412
Ag   -2.083431 -23.001030 -14.151592
Kr    0.934278 -17.365892  23.664405
Pb   -5.217685 -18.421291 -19.204405
Ag   24.112637  -7.881230  15.712283
Ta    5.587077  16.170469 -24.539135
Os    8.410189  22.887162  20.318339
Sc   12.216572 -14.404414   1.651431
Ir   -1.301534  13.747363  16.697191
Sn   -4.933255   6.508006 -18.810375
K    26.575120   2.853671  -3.324090
Ni   21.076242 -24.942607  -5.378858
Mo   29.685131  12.853379  -9.200634
Rh   25.508609  11.539498   8.527168
Se  -13.738870 -14.101500 -23.612394
Zr   27.284325  -4.603626   5.394156
Pm  -21.931121 -21.058990  10.850733
Hf    1.959993 -13.915757  19.655045
K   -29.097915  12.716665   2.841113
Si  -18.931379   3.273860   2.664796
Be   -3.102811  15.487936 -26.413892
Al   20.496692 -16.885568  16.062363
Ru   -5.899381 -16.737070 -27.144301
Os   11.541545   8.572542 -25.292785
Ta   -8.326988  21.647295 -23.767662
Ga  -10.508640  -4.228179  15.015117
Tm   -9.716323  24.319638  14.250254
Cd    2.786345  13.613596  12.158492
Ar   18.155027  -5.853446  -3.863527
Br   11.409424   2.158422  23.634941
Re   21.017343   8.265458 -12.803197
Sm  -12.259427  22.837281  11.831014
Xe   31.243962   5.955096   1.959179
Gd    3.820979   0.208216  23.589949
Ti   16.641219 -24.200229  -8.439993
W    -7.328833   0.236016 -24.543533
F   -17.138109 -18.174977 -15.388725
Ir   26.600176  -2.916468 -19.824689
N    15.534271   8.435242 -11.428360
Sb   -6.256300  -3.896470  29.416618
Ba  -12.171154  24.724135   3.277832
Sn   -3.316679  -2.381925 -16.228322
V   -28.695132   8.199239  15.327345
Br   -8.295842  18.443473  -4.119844
Sn   13.815647  -1.824087   2.595680
At   13.145812 -26.379667  11.481377
Ge  -14.725350 -25.796942  -0.121408
Re   24.577460 -18.026187  12.045342
N    19.577658   8.704224  -5.306223
V    -8.195597  -9.688115  -0.877352
Re    6.661541  12.309256 -18.526174
B    -6.170422  18.506218  -4.877674
V    12.318671   6.493403   3.248948
C     1.031165  22.552370 -20.857531
O    25.752185  11.330884 -14.704239
At    4.888518  12.928518  25.853195
Lu    9.080780  15.954943 -23.857709
Os   13.119691   0.271509   1.543055
Nd   15.594191  -0.217715  -8.317225
Pd   12.779327  -9.790568   5.272854
F   -14.693095  14.622598 -10.604283
Ne   20.622034   5.248051 -12.219152
F    -3.137349   8.570753 -26.372220
K   -17.110465   0.002605  -7.666705
Yb   10.191040  22.244375 -11.680528
Rb    2.390792  15.368360 -26.852009
Gd   -5.881636  13.177915  25.697841
Er  -21.226165  -7.669500 -20.322153
Ba   17.405280 -13.981313 -10.833501
V    12.774510   0.010563  -1.918352
Bi   14.980804  27.098261  -8.622529
Mo   -9.604376  15.428237  16.608331
Sn    7.116420   0.182213   2.906410
Na  -17.121448  18.942954   3.590916
Kr    4.314892  -6.314792 -22.063941
Tc    2.816029   5.525735  13.581912
Ar    1.184835 -14.134998   2.251547
Mn   24.972328  14.569641 -16.728339
Zr   20.841859  -6.140779   4.632747
Tl    2.854889 -10.884012  -0.858114
S    18.423641  13.717256 -14.431200
Mn  -10.699759  17.576878 -26.065726
Mg   -6.744737  17.101659  10.279637
Tl  -12.376499   2.203469  -7.035586
Os  -17.090368  -3.650253  17.412790
Ce   -3.354160   2.865651  14.283270
At  -14.251949  27.521215  -8.556292
Pb   16.083529 -10.930446 -21.414270
Br   15.795620  10.369896  18.392821
Lu   -5.818948 -27.402658   2.094380
B   -31.682887   0.838290  -8.002650
Ti   14.153905  18.423977 -23.683817
Ca   -9.491967  24.285187  -8.680460
Yb   17.256960 -12.534173  25.460042
Hf   12.342370  17.508389   8.287457
Ag   -0.326557  -4.916257   9.994243
Pb   -0.188115  -7.673886   7.557131
V    19.844172  13.917179 -19.927209
Ar   10.690252  19.643342 -14.754014
Li    2.450559 -24.600978  -8.525080
B    26.567532  -1.305191  -9.253109
Pm   11.377054  14.905978  20.648454
Cu    9.263349   1.193370 -26.339136
V     8.853359 -26.327471  -9.168616
Tm   32.392607   0.685438  -5.525762
Be   27.788135 -15.472921  -6.035315
Kr   -6.036343  11.791747 -28.309556
I   -10.099628 -22.925381  -5.853317
Ru  -27.646811  -3.109107  -5.029148
At   -3.574851 -15.032196 -29.547252
At   12.439705   3.368289 -15.206431
Ne  -16.352518   6.452653  -5.672354
Sb   -5.908801  10.521485   8.363224
Ho  -11.045217  27.332494  -2.844603
Ru  -15.664599  13.219387 -15.393676
Pt   24.787911 -10.773142  15.175410
He   -3.260705 -26.523401   3.223144
Sn   -3.369361  26.626716 -10.548505
Ne    3.362819  16.266992  19.073678
Na   13.614870   9.221851   4.383428
W   -28.499463  -8.095131 -15.940980
Mo   -6.399707 -26.459512  16.976390
Pr   -2.821880  28.213968   7.799560
Sm  -23.722189 -14.292807  -5.534761
Pm   21.490501  -5.705288  -3.646985
I   -26.044665   2.803922  15.632934
Zr  -25.363966  13.901637 -12.988890
Xe  -12.409279  12.398898  24.424715
Mo   19.220838  -6.161396  -2.650518
Ga   18.619757  21.998119 -13.235438
I    12.249006  -5.294025  11.154973
K    -3.766288 -18.233913   3.203942
Ag  -23.655510 -16.674748   8.541425
In    8.058412 -25.324319   5.555011
B     6.369809  29.501568 -12.698611
Ni    0.421645  23.309018  14.617068
Xe    2.828477 -19.505773  16.421048
W     0.230154 -18.143639   6.187932
Cr    0.572040 -24.396371  -6.776764
N   -12.333404 -27.612814 -11.255017
In    5.619694   3.731919   1.385576
Sn   27.233847  11.628398  -8.942408
Hf   -0.276068 -14.470144 -28.419606
F    17.609645  14.935649  21.894221
Tm  -20.618901  16.316863  20.378158
B    26.055452  11.812340  -5.096566
W     5.111276  12.275807   7.471691
Pb  -11.054023  10.231507 -17.147732
Au   -5.265654  20.210026   0.725260
W    -2.957139  24.265690  13.135957
Ni  -10.279815   2.570190   9.951375
F    -7.215044  10.234783   5.726885
Hg   14.646335  15.299387  17.638791
N    18.578166  12.683800 -20.443739
Rh    0.101731  33.239512   2.678068
O    15.555248  28.897146  -1.235862
Po   18.371919  21.527660  15.698562
Yb   23.934736   1.142648   3.504538
Pd   26.641519  -1.686723   0.485070
Lu    4.985223  26.910422   3.241708
Mn  -17.051624  23.181062  -3.501235
Cs   12.412916  13.148230 -17.279236
Nb  -13.183285 -14.216701   4.405894
Li   19.959891 -10.661120 -19.560325
Tl    4.245181 -15.822780  10.022326
Cs   14.832599 -22.245388  17.518997
F    27.235357 -10.530909   8.726991
Hf  -11.361194 -13.774554  12.784763
Pm   -9.328802 -18.336818  26.118562
Ba   -0.844719 -27.637874  12.321713
Pb   11.235186   1.925653 -13.475778
Sn   22.192298  10.408525   8.112982
Bi   13.182780  -9.714872  -1.471271
Ho   -3.721797 -11.038464  -5.271789
He    2.219143   2.073864  30.094724
Sc   -9.384016 -23.715895  -6.723238
Y     6.252689   9.762810  23.298544
Rn    2.349290   5.735486  31.761609
Br   23.873525  20.621626   0.842096
Hf   -8.381469 -31.287204  -8.385393
K   -20.934325  -2.799876  13.851738
Si    4.517781  -8.465285 -24.941971
Rh   11.503320   7.512869 -19.874545
Xe    2.025717 -19.853590  21.868199
Y    14.422088  19.032402 -12.457180
Sr    2.868478 -26.993641  -1.703215
Rb   23.994855  -5.925087   7.315509
Be   24.174031   9.763815   0.915971
Cl   -8.637556  -5.138558 -31.163258
Re   24.538566 -12.569022 -18.873861
N   -16.073912 -21.014895  -3.773183
In   12.938843 -20.256316  -5.582726
Ne   23.838303  -2.569314   5.550808
Sr    0.242239  10.002024  29.029988
Si    6.426890 -12.597726   5.056317
Mn   -9.292673  -3.666517 -19.332845
N    -4.882347  -7.932521  -8.587633
Cd  -15.747191  -0.139038  -7.706698
Be    5.693427   7.772445  27.532303
He   -8.599826  13.998655  -3.054303
W    -7.390710  29.799239  -5.455366
Hf    6.813493   0.533739 -30.513409
He    0.185913   6.225726   8.725124
N    -6.589371   8.085995  18.415515
Ag   16.671757  11.474579  19.027388
B     4.830663   0.893591   1.025618
Ir  -25.909555   9.429837   8.479514
Sm    5.767123 -21.815446  16.000756
Os   19.784699  15.240332  20.765542
Br   22.301173  23.970995   3.600808
Xe   -3.365277 -12.458290 -26.208031
Ne   11.202883   6.003017 -12.838813
La  -26.242932  -0.160611  14.530156
La    7.960568 -16.652718  15.897781
Ge   -1.681658  13.023275  19.530274
Au  -13.007405 -10.386528 -21.680155
Mo  -10.597063  20.741779 -12.024977
C     5.049756  10.275009  29.131742
Ce  -16.870006 -15.828469   7.924823
I    -9.667640  23.950121   9.954722
K   -21.167240  -3.722824  21.958733
Sn   12.987587   1.523117   4.897345
Se   -9.336146  -4.516767 -31.735455
H     0.114641  10.544945  29.645573
Zr   -3.598865 -15.115656  13.785618
At    7.106964  -1.514896  14.344243
K    11.366535  23.191322  -6.342388
Rh   27.778059  -1.290817   4.375219
Cd  -28.766360  -0.088395  13.786319
Re   -4.624224 -15.131499  -8.860525
Pr   19.605747  10.746469  -1.137913
Li    5.302795  19.043815   5.526025
Au    7.076315 -27.847991 -16.039101
Hg   -9.696525 -20.642300  12.543103
Ta  -14.777363 -18.649708  -2.863384
Cl   -8.508178 -27.315556 -14.509235
Cs  -22.177189   9.704173  15.181519
Gd   -4.346747  -9.420504  -7.323350
Xe    4.893421  11.355422  19.711043
W   -29.955523  10.967541  -2.177364
La   23.762469  12.094891  -4.939336
Ga   -1.641278  14.989799  13.720671
Ba   -2.050472  24.264874  17.574555
Po  -25.311957   5.690627  -4.132903
Tc    5.773444   5.099929 -30.834043
Cu   21.257117  -9.228628   7.110281
S   -10.026470 -25.459548  16.165059
Mo    1.539670 -31.241253   3.279757
Na   -2.225205   7.232278  -6.395468
Rb    4.623694  -0.153609 -28.543337
F     1.689843 -27.696424 -10.341721
Mo  -21.881273   3.576361  -9.320235
Pt    9.513080  12.719457  -3.682907
In   17.339759  11.366747  -2.039511
La   -4.095151 -19.091371 -24.185932
Tl   -5.993605  22.548192  15.237078
Ta   -6.274281  20.323571  25.952631
Fe   -4.522300 -16.262607 -14.498423
Si    5.735291 -28.625462 -10.736761
Al   16.717059   8.573243 -15.262370
Pb  -15.556434  -5.478855  24.329015
Sn   17.545812 -19.911151   4.016658
P     0.455024 -10.370847  -7.660005
Ge  -22.513239   9.319074 -15.974810
Ni    7.310648  18.244406  10.723570
Po   -0.179546 -26.928601   6.449390
Sn  -10.129293  15.248410  -7.981791
Dy  -25.496050  -8.145544   5.557201
Ti   24.005472  -8.487385 -17.626718
Tm  -19.713106   8.201353   1.544547
Rh   -3.737159  -2.187769  24.596059
Rb   24.558685  17.548489   6.774259
K     9.108330 -10.678657  15.185102
Pt   -7.173167 -10.834750 -28.393141
Ga  -20.022380  13.984185  -9.912766
Cl    8.962020   7.240080  -7.681752
Ti    3.863139 -23.692723  -3.070242
Ba   -8.096066   7.917240 -18.939793
Rh   19.133916   6.713691  -0.187467
H     7.898007  12.445221  20.485965
Bi    6.020701 -26.209146 -13.344316
Cs  -24.025493 -16.941757  -9.067689
Rb   13.046247 -14.996135 -25.845399
W    -5.966722  -4.009391   9.658668
Bi   16.163138 -12.370975  -3.528346
Ce   23.261898 -12.511316  -5.761828
Cl    4.825413  13.511520 -24.629687
Tl   -4.829451   0.150864 -18.341465
Ar  -29.979753  -8.001334 -12.841623
Sr  -23.042639  21.922301  -8.541354
Yb  -14.057054 -25.445977  -1.055562
F    26.249891   0.746934 -10.581372
La    4.352343 -20.760423  20.578599
Be   -8.660324   4.714116   6.414679
Ba   19.685526  21.098805 -17.253827
Ru    9.987053   4.835879 -12.202781
Sc   -0.175806 -10.754317  25.214371
Ca    9.340627  16.800399  -1.759255
Lu  -15.725740  -4.038609  27.764174
Sb  -24.631308  19.336603   2.893208
In   12.275605  21.222889  15.475136
In    4.364558  12.179765 -24.166576
Mn   -2.227359 -20.849270   8.699218
Rb   -6.950106  -9.359379  15.716064
Sm  -18.627910   5.957323   4.916337
Ge   15.340875   9.433958  -8.788524
N    24.920224  -6.294291  19.194280
Hf    0.662597  -0.327248  -2.826572
Nb   -5.040278  26.412071   8.644740
H   -15.966178  14.156806  14.273787
Cu   -8.954517  -4.418795 -15.728654
Ba    7.623863 -15.702395  -4.513071
He   25.295963  15.967198   5.199834
P    24.241590 -20.680035   5.656159
Cu   18.278474   8.914157  -6.205874
Ta  -23.969641  12.218784  -3.145356
P     6.012025   5.161269 -18.105362
Pb  -22.984626  10.764266 -13.920776
Ar    3.944769   9.886080  31.479461
Pd   -0.340974  23.063944  -1.830743
Cd   -3.003057   2.114230 -28.352840
Mo  -21.754232  17.531048 -10.977995
Tl    9.707464 -10.816483 -25.231851
Pd   -3.205933 -16.967682  -4.937017
Mg   -7.833892 -23.758615   8.040942
O    28.141293  17.102160   5.762973
La  -20.027332  13.055900   0.860913
In    3.628772   4.279876  31.785786
Er    5.889123  15.497293   6.402609
Hg    0.535117   8.192178  16.286409
Bi   11.594120   4.990746 -22.667383
Lu   -6.660283   4.621173  19.709327
Mn   -8.733902  26.386333  -9.222122
Zn   15.245249  18.100839  23.711786
Rh    0.413824 -12.271023  23.242675
Lu  -14.360794  27.893684   7.332479
Gd   -5.530337  16.525930  -9.330331
Na   -1.063975  -9.310411  21.253915
Pd  -19.227629   4.960762   7.497889
Li   11.740226  -0.861294  -7.606423
Ho  -32.269462   4.243607  -1.024793
I     4.178742  -2.948080 -14.138489
Nb  -17.980105  -8.707159 -17.937458
Mn   14.103019   9.009092   7.943629
Y    -2.748771   7.435820 -23.826451
Pr   -0.480726 -31.407697  11.527193
Sn  -11.355236  23.304839   7.598189
Na   -4.602125  -0.536538  -5.140447
Li   10.907024  21.650496  -7.876586
Gd    2.671910  22.980870   3.992484
Yb    8.713286  20.413199  -1.327722
O    14.034668  20.468140  16.379176
Ne    6.690851   2.203503  23.332131
Ru    9.950318   6.731785   0.979574
Ag    9.365347  -6.653659  -6.767123
Rn   22.619185  19.567934   4.068611
Rb   20.088003  -4.386194  11.777477
Ru    6.549684 -15.540537  18.527171
Hf  -20.824765 -18.181084  13.980004
Ti    4.267835 -19.186938 -26.469520
Tc   18.113528   2.115825  11.115915
Ca  -24.693022   4.023915  -2.764434
Sn    3.325022  30.894694  10.764230
Ni  -25.464863  13.325942 -12.339009
Co    9.807849  28.352420   8.305271
P    24.616784   6.920487 -12.833739
Mg   -1.693540  -9.871016   4.754657
Ir   15.274461  27.432389   6.969321
Tl   -4.259601  27.560645   6.889027
Sc  -23.253194   4.785209  12.350087
Pb    5.301005  -7.111354  23.378918
Cr   -0.549913 -22.256161  -8.281124
Xe   -6.676080 -13.747665 -20.596747
F   -25.663218  -9.054133   6.375333
Ne  -21.149762   1.029119 -14.359290
Pt    3.635966   0.420907  -7.224155
Cd   -7.040192   5.577327  22.151398
Li  -16.062270  -2.035514   5.303401
Ti  -17.695248   5.780034  -0.396133
Ge   -1.306817 -16.376029 -19.975441
At  -21.674674 -15.947969  -4.705842
Gd   -9.065574  -4.905602   3.808425
K    11.943695 -15.612074  -1.966875
Co    9.675011  13.841259  15.292925
Lu    9.657614  -2.931314 -11.808471
Mn   -0.505368  -6.547547   2.087784
Cd    4.034675   3.141604   5.913880
Os    0.153748  21.675934  11.622407
Sr    4.185545 -28.427261  -3.181586
Eu   23.887659 -20.986518   8.981244
Ti  -10.289940  -2.931769  19.453342
Tb   -8.580526 -15.982392  16.586242
Fe    5.814226  -4.735483  22.023552
Cu    1.712638 -12.363918  12.452723
Pt    2.982257  24.433079  17.397954
Tb  -10.186411  -3.623572  -9.901295
Er  -11.956311  11.857851   7.113828
Ir   -5.609611  -0.027003  32.435512
N    11.442670 -17.789262  -1.001826
In  -10.313647 -22.979464 -14.765152
La   20.588292   2.669846 -25.478989
Pt  -14.441385   9.811220   8.111096
Sn  -17.227819  19.954158 -17.168818
Nb  -23.827708  10.031443 -15.113406
Ca  -18.676139  -4.250856   1.743241
Cs   11.329391  18.214561 -10.261315
Nd   20.653121  -7.510724   0.427806
Na   13.999975   6.405971   8.664666
Eu   -7.392779  -5.981593 -27.978554
Ta    2.651945  16.030647   0.636321
Ta  -20.380712   5.920822 -22.304499
Ne   10.819171   6.238771  12.507630
Re    5.792502  -3.165543   2.455819
Eu   28.146128  14.587012   0.958419
Ba   20.398312  -5.205597  20.434757
Fe   28.273720  -9.312845  -3.865206
Mo   -6.122590  12.354958   4.440720
Rn   24.352089  15.897053 -13.723076
Dy   -1.709885  26.529740  17.208283
Rn   -0.264278 -16.805535 -14.273156
Cs    0.780403 -31.415162  -1.230727
Cu   -0.707237  -6.590365 -25.478981
Fe   18.354179  15.924149  14.898371
W    13.884284  21.146850  -0.845155
Gd  -19.051292  -4.895298  -1.999711
Sr   17.562524 -21.393099   9.470800
Li    9.942760  23.839681 -18.133448
In   -1.917873 -11.539267 -27.951049
F    23.217587  11.328119  19.276240
Cd    0.054701  18.349697  -1.663266
V   -10.486186 -11.428997 -10.369642
Te   -7.730304 -32.693864  -2.282537
Y   -16.179407  10.137083   8.002046
Ga   19.242759  -0.271899  -9.891047
Ho   31.158727   5.250557 -10.710813
In    3.645750 -10.593911  26.040347
I    24.139309  22.570197  -2.165595
Eu   13.814869   7.052105  -2.760385
Rn    4.501799  -8.333346   8.749958
Ta  -28.303496   0.972326  -5.560037
N   -16.295334   2.382010   1.608555
Ag  -22.975974 -11.047118  15.531078
Ho  -24.922449 -15.715789  -6.847116
Yb   -9.744846  28.441885  -2.360712
Kr   27.199344   2.549083   2.529578
Ar   14.600389  21.603485   0.054738
C    -1.750437  22.440099   8.540970
Sb    9.450742 -12.636564   3.919815
S     5.362410   0.134651 -18.069088
Rh   -8.801894  -1.392919   9.753657
As    9.937574  -2.100229 -22.303690
Ar   12.408471  13.091964   7.261628
Sb   27.390296   6.235820 -17.768244
Y    28.060902   2.024074   6.260290
Ar  -23.571299   2.488799   0.867903
Na   -6.968295 -28.549783 -12.433519
Cu   17.873601 -13.713547  19.004854
Ca   20.715159   4.352572 -16.859191
N     4.087812 -16.009555  11.574407
Hf  -12.118590  -5.619184  17.440662
Mg  -21.242944  16.895983   6.386345
Mg  -18.581217  16.946178  -2.637238
Ho    8.841813 -19.353738  -8.994885
Er  -22.519736 -15.422062  -4.786032
Tb   21.934296 -13.268632   5.729101
Eu    1.870803 -18.629193 -16.448388
Se   -6.929995 -22.003093  -8.403064
B    -4.855072  23.720325  15.330617
N    -0.545364   7.047300 -11.197792
Po   -1.442386 -25.662060 -20.739470
H   -21.944888  17.641335  -9.440232
Au    7.082583 -20.291190 -25.475671
V     1.908901 -24.889712  -0.247193
B   -11.800468  -6.924662 -17.245467
Rn   -2.213437  -3.940206 -15.067633
Gd   -1.686479 -16.671908 -14.966854
Ga  -25.652455  -6.009386  15.492757
C   -25.935503   4.138467  -4.437942
Tm   -3.320488   5.062896  11.570298
Nb    5.490243  25.639551  18.489601
Mg   -4.794623 -18.354631  22.342923
Tb  -17.806170   1.775084   2.325518
Tb   22.102532 -11.960896   9.994235
Yb   -0.312736  27.729339 -14.200104
Ta    0.481455   1.600866   1.331482
N    -2.255391  -4.200047 -24.008030
Ne   10.599765  19.559893  -2.692019
Li   -6.861849 -30.033668  -6.949793
Ni   13.915783  12.234011   1.480634
Mn   24.593502  20.827272  -9.107103
Cr  -12.219463   8.206254 -12.070776
Y    27.525438  -1.165044  12.626333
As   -5.928002 -21.453973  -9.098173
Pt   -1.573727 -19.900979  27.104062
Ce   18.829049  -9.434225 -14.525795
Sr   28.316201   2.707148  -4.979144
Nb   28.484379   7.330868   5.932875
Fe  -13.116428 -25.664885  -7.337247
Be  -19.359098  12.065606  -0.695498
W   -29.145138 -14.103149   6.479359
S   -12.235913 -15.489754  -9.629581
Bi   15.200611  22.194612  13.870887
Re  -15.399740  -1.136944 -13.294498
Ce   -6.746461  -3.325756   0.695699
Mg   -5.880135 -17.962821 -20.140184
Ca   17.072205 -22.789046 -10.350405
Ni   -2.931285 -16.653759 -10.602094
Nd    7.037409  -9.331679 -31.118368
F    -2.843666  25.288965 -14.516839
Ba    9.945578 -20.229031  19.277313
Po   -0.915850  17.080343 -25.414253
P    18.735340  11.933854  22.566793
Rh   26.818141 -13.262807   8.207593
N    28.176328 -13.998458   6.122824
Rn   -6.073320 -19.094461  -5.450804
F   -22.695495   1.038918 -19.051203
Kr   20.438044  19.434346 -12.592576
Br  -10.693343   7.129276  12.121882
Au   15.365794 -24.247365   0.667058
Yb   18.867223 -20.034372  -4.414384
Pt  -11.579257   8.360356  -8.717694
In  -12.700761  19.495758  11.694890
Eu  -17.242977  -0.615559 -26.666856
Cs   -0.540891  26.796916 -18.839336
Ge    8.376049   8.059367 -28.288759
Ag   -1.604795  11.297011 -17.571612
Os   21.448198   6.474068   9.622524
H   -21.661798   3.958042 -23.095864
Sn    3.287397   1.508579 -18.666297
Tc   23.127842  -4.147128   2.301619
Ce   -4.554393  19.344131 -20.531745
Tl    1.468815   7.392902  -2.851702
Ne   11.369853  30.090180   9.522086
Nb   -1.486127 -13.811292   3.482141
Mg   18.174078 -24.542000   6.391296
Pd  -17.574119   9.651616 -26.233225
At   20.851197   5.399874  24.990490
Ir   13.384456  -7.780152 -25.383946
Kr  -15.810472  -1.210956 -17.653639
Lu  -15.351251  -2.841859 -29.138947
Ar  -24.853859  -9.838645   9.194491
W   -29.422236  -0.036532   8.952697
Ti    0.493368   0.395947   9.474195
Au  -23.106908  10.451352 -10.153541
Pm   -8.596086  24.095878 -13.376028
Fe   -1.625832  15.234505   2.209195
Ge  -11.333075  14.466149  17.770862
Rh   10.005331   3.963758  11.865032
Ga  -11.849451  -7.897212  16.937212
Br   -1.569076  20.416705 -24.091437
Tc    3.083550  14.746745  -5.612108
As  -19.146067 -13.097331  -8.797424
Fe   18.397536  10.189206  10.749254
Lu  -14.190027   4.989046  -1.771492
Zn    7.730813   6.217198   2.326434
Mo   -2.240223  -2.051477   9.786076
Po   25.124783   5.337291 -17.803496
Ce   13.305717 -12.826371   8.112175
Co  -23.570500   4.370751  21.491613
C   -15.173399  16.893964  -6.578914
Ce   -9.525578   2.010155  21.164873
Ca   21.285146  -0.987968 -16.140908
Al   -5.149701  21.077586  -3.615560
Sn    7.244487   5.838354  -7.790884
Ge  -22.220738 -18.920875  -1.667982
Ca   12.656495 -13.740645  -1.717666
W    21.687898 -15.222025 -19.245196
Os  -19.796685   0.249415  26.882406
Ho   20.900521  11.055765  20.843991
Cd   14.450358  -4.777584 -24.959260
Ru   -0.525076 -27.836589 -17.541667
Ba   -1.143300  13.705743  25.236819
Br    3.239535   8.081196  -2.739323
As   12.319829  -3.035907  -6.016262
Al   15.331205 -17.653489 -19.783594
F   -21.142328  -0.583115   8.212389
Se  -12.865415   3.247961  27.523140
Si  -24.983344   2.132723   5.165893
O   -19.416966   1.873869  12.416480
Cs   -7.229047  -8.826445 -14.131807
Nb  -22.277747  10.284520 -18.419848
Na   25.868769   4.499529 -19.059056
Ar  -15.918888  -5.796297   8.677977
B   -15.042884  -4.606407  29.091823
Ho   11.897784 -17.206194 -19.390838
V   -11.898754  -8.834913  13.734006
Co   -2.027764   2.509900  -2.716513
Au    0.669768 -19.870524  24.672420
Po    6.146393  -1.223152  16.928739
Ge   17.942625 -17.833679 -21.274315
Pm   -3.804187  12.571127  29.529975
Rn   10.138750   3.193153   4.399762
Ge   -4.583265   3.031597  -1.097262
Tb  -18.987125  -4.457797  17.067527
Ta   -9.191329 -24.190773  -8.116644
Pm  -10.678906  23.066623  -8.375952
Hg    4.321600  -1.631802  -6.162016
Ba  -31.808259  -8.320236   7.172663
Mo   -2.829858  10.777968 -13.129152
Zr  -25.528523   2.567149  -2.860850
Xe  -15.931199  -8.546892 -26.288070
Tc   12.612349 -12.625359  26.166007
Ce   -1.566913 -17.915813  -5.110538
Po   -5.748569  -6.781085 -16.576996
N   -25.678073 -20.376956  -4.022402
Cl  -30.067514  -3.162865 -10.930877
Lu   -2.583695  13.967105 -19.083242
F   -21.286901  -7.236745   4.619664
Ar  -10.662783  -5.198578   2.413981
Hg    9.773611 -24.712612  -9.742243
Ru    5.795521   0.009433 -32.479870
Au    6.369699  -7.152154  28.029895
La  -11.325036  29.109450  -5.786838
N    -6.584309  -0.677748  14.116565
Gd   12.583908  -5.917393  -7.451636
C    13.993912 -14.529687   0.293976
Pm   16.111801 -20.460275   3.489712
Cr   -0.376666   3.036739 -31.832645
Xe   14.325382  25.468244  -9.356782
K   -28.885523   1.007334   9.706749
Ca  -15.946384 -26.589573   0.716901
W   -13.535558  17.567938  11.744547
Ce  -22.397471  15.834353  -6.198930
S    14.099535   3.548566 -27.375871
Sm   32.190912  -7.934962   0.310882
Rh  -17.972374 -17.017967  16.051265
B   -20.319723  17.203024 -16.617739
Al  -20.132574   8.359304 -12.221232
Gd  -22.215215   7.343887   2.536195
B    17.970678  22.599092   8.187207
Xe   -2.843297 -21.647895 -23.161185
Tl    1.071546   0.169702  12.196341
Na   -7.610645   3.439812  25.265033
V    13.827203 -12.653259  11.510510
F     8.599866  -2.823379 -22.607371
Po   12.750758 -21.445084 -21.461358
Na   20.896488 -11.473767 -12.450527
Yb   -3.503651 -29.865988  -6.239512
Tl   18.562367 -18.589816  -4.739250
Pt   -2.975151   1.656739  13.827893
Re   23.518856  -7.446170  -5.342674
P    -6.983159  29.386176   8.099618
Rn   -6.844135  31.154945   7.615222
Rh   -5.205669   8.516762 -17.352586
Mn    7.826850 -12.126797 -19.298011
B    27.812361  -5.004473 -13.125552
Tl   -3.124774  18.185320  21.400362
At   16.903157  19.630746  10.634267
La  -14.489678  -1.323958  25.828334
Mg   25.719515 -10.626162 -18.668100
Co  -10.689337  29.569489  -8.499957
Br   -1.645827  18.245891   3.154254
P   -30.133572  -7.920240  -1.172308
O   -14.781654   1.250883  -5.392482
Hg   13.825762 -24.496239 -12.621557
K    10.001453  19.315472   7.321151
Bi   -0.159741   1.795938  25.005480
Cd   -6.739974 -21.351508  -9.801859
N     5.346245  -8.612653   4.912423
Sc  -18.625644  -8.777042  19.454833
Br  -11.854579  -4.628856  28.140300
Ag    7.748462  -7.425279  -3.820667
Rh  -10.016619 -15.238393  -2.725335
Mg  -16.593284 -22.186241   7.983094
Sc   -1.577820  16.343852   9.177653
Ti    3.926152  -3.789086  31.498939
Re   -6.759098   6.227455  26.706642
Ga  -15.632174 -21.606744  12.630028
Ar  -18.161528 -25.413414  -7.441707
Pm   23.666658  18.861312 -14.235944
Al  -12.512091 -24.742367  -8.334758
Bi    8.983007   3.431447 -21.176808
Te   -8.925250  29.680889   5.257779
Na   10.472429  13.937482  17.266268
Po    5.395527   8.689769  18.312382
P   -19.339864   9.686466  22.137847
Cu  -11.668552  16.916797  16.392484
O   -17.646671  -4.931047 -20.080826
Li  -12.316358  16.964987   2.452914
Ne    3.941083 -25.493232   9.000884
Tm   -1.353917  25.056704  19.288628
As    1.230359 -15.498436 -25.594444
K   -24.678498  -5.195373 -20.503378
Sr  -22.966777  -7.569707  18.420116
He   15.337353 -15.871620  23.744996
Ca    9.973082  19.859230  -8.287348
Rn   15.976494   7.394279 -21.624559
Ru   -6.407393 -15.046424 -22.185445
Tc   -7.766798  -5.680464  -4.183354
Pb    9.179107  -7.373353  27.859242
C     8.097497  10.300752  11.305192
Ar   17.250834  23.083198  -1.928102
Tc   10.004097  10.305653 -29.078687
S    22.678090   9.501056  14.958497
Sb   15.932779   5.791520  23.716554
Os   -5.562436   5.182034 -22.682892
La    3.309937 -15.205451   6.396390
Nb  -12.874975  10.306140  -5.809397
Ho   -6.299950 -25.979728  -0.811860
Re    4.554793  -2.992366  -5.807056
Nd    8.448191  31.850025  -5.251017
Cu   -1.957684  16.264918  -8.401470
Ru   -7.324982  17.874552  19.263916
Sb   18.351780 -12.773240   4.965755
Sm  -20.822468  -1.925757 -26.360958
Pd   20.026035   7.229404 -20.154899
Pt   11.075018  25.440588 -13.430942
Ca   12.617161   1.717239 -10.762405
Pb   12.297580  -4.186453   1.008549
Cl   22.605652   7.585209   4.333039
O     9.176170  22.042032 -22.142080
Cs   -6.646766   8.120907  -8.038331
Ne   -2.308801  -4.660237 -20.599616
Si  -17.031380  14.074488  17.486454
Ba    1.594270 -19.593186  -6.457749
Y     2.584990  -7.609481  -6.361968
Ge  -23.814030  11.794266  10.822509
Tc    6.711471 -17.165062  27.719743
Ce   -7.911868   3.010497  29.435071
V    28.459525  15.137649  -4.120942
Er  -24.321359  13.407443  -5.687157
Tl   -2.667251   2.368739  21.915664
Rb  -11.367866   8.712172 -27.401256
Ca    8.259248   9.946102  -4.754737
Ar   -8.125496   1.415108  19.264667
F    -5.521949  -6.848450 -30.152578
Br    3.501530  27.243056   9.088058
W    29.609615 -10.177623  12.085971
As  -21.012955 -19.278254  12.541396
La    9.754008 -23.976743   1.746705
Cu   -6.672591  19.523514 -24.872280
Mg   -7.766044 -13.262287 -13.473445
Bi   13.690401 -13.390779  17.714082
Be  -20.202836  14.105242   3.093172
Rb   17.078210   5.141952  20.023852
Os   18.999124  -7.725881 -23.466013
Zr   32.235673   4.373530   2.383544
Cs   -5.913190 -18.541242  21.775720
Yb   23.202269  -9.610304   2.737242
Cs  -10.373392  -0.527978  -9.351487
Co   -9.745049 -14.701627 -19.445854
Cr  -18.464661  -4.933607  25.501195
Li    4.187675  14.744600   3.850769
Ca   -9.523859  18.673946  14.484865
At   -9.505726  20.872422   7.939390
Be  -13.522194  12.044401   1.331909
Sc  -16.877531 -18.922659   0.901624
Nb   -9.136354  25.963077   1.164819
Sr    8.790300  15.195644  26.246179
Pb  -14.816199  19.212984 -21.411305
Ga  -20.147486  23.419719   7.629584
Kr   12.866788  27.008329  -3.473424
Cl   12.399857   9.393577  26.237738
Cr   28.500072  -5.138123  -6.339705
Re  -23.570725  -8.477865  15.234593
La   12.566974  21.679770   8.522874
P    14.884587 -12.636803  18.610225
Ti   28.097547   2.399855   5.459278
Be    4.001945 -15.059075 -11.718591
K   -12.446274  16.731087   6.232507
Os   -9.629804  -4.236797 -24.103091
Ba   25.794231  14.506145   0.813994
He   -5.280080 -15.820828  -9.642757
Sn  -21.724942   4.441803  10.421543
I     6.763620   8.257248  18.917906
Nb  -15.524239   5.163053   9.377248
In   20.430355   6.945363  21.376699
Rb   -0.957955  11.649530   8.577888
Kr   -2.042193 -18.754880 -23.265160
Ne   -0.981998 -23.506454   5.902668
Si   -4.034670   8.923696  10.994160
Xe  -21.671660  -7.062631  20.682180
Li   -6.766153 -15.639896  -4.271750
Si    2.487659 -16.566810 -10.271410
Te    8.448529  -6.494083  23.378587
Pt   14.131744   4.518168  -5.084919
S    -0.656896  17.315408  13.173572
As  -17.356754   7.233411  24.423778
Co   -2.365458  26.711919   6.287566
Ta   -5.857195 -18.055547 -25.304390
Sn  -12.918398  22.777633  11.001054
Cr   -1.387609  12.844351  21.551207
Ga  -13.444770   2.376044  10.150849
O   -17.550208   9.400626 -22.935172
Cu    3.728635  26.775308   3.545338
F     2.459140   3.962409 -10.798060
W     1.788473   4.396895  30.371985
Sr  -19.920780  11.002243 -23.092250
Tc  -19.737368   6.568115 -21.071249
As   12.096776 -18.497740  24.840033
Dy   22.188851  20.151732   9.943084
I    24.344035  17.229614  -2.975930
Nd   11.533907  24.904364 -14.550098
Rb    2.736407 -19.767998   7.123182
Sn    5.065325 -21.418900  22.804437
Lu   10.370344  20.488237   1.532315
B    17.260747  -1.732402  25.042579
Xe  -11.005005  -3.384369   1.175059
Bi    0.772898 -30.541879  -0.123814
B    28.034392  -2.498300  12.522385
Pt   -9.425266  21.592186  11.651169
Tl  -11.228504 -21.732235  19.649747
N   -16.682913   6.199943  -7.450838
Rh    6.556414  25.601580  -5.725431
Mn   -1.740311  10.212497 -13.112367
In    8.885925 -21.719093   0.795021
Mn    9.739012  28.456422 -13.653564
Nb  -15.192273  -4.762976   5.864837
As    0.709750  -9.669749  20.668273
Ar    8.624734 -12.722493 -28.849130
Au    4.963631 -10.690622   0.704036
Er  -15.007441 -24.369596   9.650038
Zr  -19.241149  -7.658254  -4.842545
Ho    8.227169 -22.381845   6.846530
Nb  -14.356015  11.531444  26.291528
Mo  -15.323661   9.299286  17.520484
Ho   15.736143  25.779778 -11.013251
In    8.308994 -23.644205  -1.238384
Ce   12.556911 -20.820606  -2.780269
B   -28.019378  -6.664801  -5.880050
Ne    1.422832  -8.086813  20.599113
At   -2.885031 -21.939599  10.842629
Ho   -6.341846   6.217202   0.479111
At  -20.548767 -15.929847   4.338181
Ne    1.140829  -6.836857  10.298069
F   -11.692321  -4.608232  16.010758
Dy  -17.375992  -0.841123 -17.888406
Sn   -4.853785  -5.045083  -7.270390
Y   -20.172279 -16.285119  -3.042133
Sc   -0.556284  15.854884 -28.586342
Xe  -11.724241  18.643768  -6.391761
Y   -18.542726 -15.557114 -17.760876
Sb   30.287446  13.600059   3.626805
Bi  -20.375182  16.075973  12.974705
F    15.695401  -9.891552  22.042836
Mo  -28.970516  -5.728572 -13.474982
Ni    1.241177  -6.829818   5.721057
Cd  -20.891044  -8.007697 -16.711846
Au   -5.055442 -11.119567  11.121319
Ti   23.093234 -13.005159 -11.041594
Au   -8.433978  14.942223  -7.365385
Tl   11.695312 -21.116346   4.410694
Rb  -31.863543   1.708020   2.795148
Rn    8.893966 -23.182439  21.731766
Pm   -7.567515 -11.227235   1.106983
At    5.910627  -0.947583   5.034448
Cu  -16.877380   9.898923   4.972046
Re    9.998734   5.386341 -13.971953
At  -21.924073  -8.115784  21.881164
Y    -1.289475  -2.871250  16.769357
Tm  -28.064009   9.517423 -15.879830
He    1.817686   3.495063  14.023474
Pm   11.786058 -19.561719 -10.515682
N     7.998098 -15.308787  18.171798
Pb   -9.828388  -4.758323 -10.707895
Tl    0.989192 -23.476808   9.494079
K     9.944358 -18.349294   7.331564
Tc   -6.529194   9.260584   5.743026
Be    8.626859 -11.565323  19.464082
Rh   -0.531831 -10.185903  -0.064391
Sc    6.106001   4.244508  29.943601
Bi  -11.074011   8.761324   6.150364
B   -29.867215   1.715478 -10.538651
Ta    7.217933  19.423526   2.223961
At   17.538787 -11.242890 -23.779331
Cu    7.480094 -11.167710  12.899585
F     2.405167  -5.214441 -28.459022
He    3.260137   1.901284 -30.412494
Sn   -8.527758   2.200136   5.089034
Se   -7.897863   7.878333 -16.759853
Sn   15.695053   2.376102  -5.636277
H    -5.972144  15.899575 -20.155758
Fe  -25.228754   2.375926  11.921488
Cl   -1.062417  -0.545755  19.476591
Hf  -15.829715  16.740684  -0.999487
Sm   16.324914  13.420414   7.121826
Po   -6.534558 -12.560370   9.378304
Rn   30.335465   4.818838  -0.970782
Er    9.949525  -3.539229 -30.356056
Ce   -2.208303 -22.068933  -1.724673
Sb    9.713977  -2.205843 -31.739369
At  -11.370839 -16.955511  19.935930
Cr   13.191135  22.828195   8.272413
Sn  -18.166836  19.154290   0.907531
Mo   13.919474 -22.699927   0.874919
Lu   -0.865064  -4.462807   5.864614
Pm   23.831574 -20.969606   9.823783
P    20.994455  -9.589942  23.645137
Tc   17.269276  10.543170 -20.541057
Pt  -18.393003 -25.747765  11.456829
C    -2.624227  32.749416   7.377692
Hf  -25.200469  12.708376  -4.008177
Ba  -17.846586   8.690416   8.242442
Lu    8.769359 -17.884182  15.560264
Be   24.739261   6.242829  21.085646
Tc   -2.946181 -20.462863  17.986005
Cu  -22.181978   6.711449   6.618993
Pr   10.637771 -15.260594  10.813455
Cl   11.278798  28.615713   0.227443
S     6.093492  15.590051   4.142148
Te    4.746929 -13.050313  26.498917
Tm    9.159781 -27.010126   1.811988
Pb   11.334092 -17.350670 -13.741787
Si    4.077139  22.804263  -4.385115
Hf  -19.149929  23.730772  -6.088202
As    6.373198  13.040459 -26.568138
Te  -15.961382   6.000033 -18.070738
Pb  -11.935394   9.411438  21.598136
Be   23.304760  -0.646063   9.419713
Zr  -17.046642  -9.863274  -3.053467
Nb    8.765184 -16.593827   8.491751
Tm    1.543968   3.948989   1.030528
F    -5.152205 -19.083707  19.013803
Sr    4.013920   7.624336   9.585232
Y    18.367072  12.128888 -15.693024
Ba  -12.223847  -2.505112  15.419794
Kr  -21.257187  25.629892  -5.019418
Lu   -6.930031 -12.635869  19.141186
Pd   10.277066 -24.235552 -11.301883
Pb   11.403425  -9.332436  27.415756
Pb   -7.197910   2.668059 -22.978135
Mo    5.166105   9.755111 -21.199857
Ir   23.432117   1.573434   9.435807
Rn   23.775251  11.958288 -11.889151
Ba   18.716235   4.240374 -14.808928
Co   -1.783428  -7.117008 -25.621616
Lu  -26.322644  -1.125714 -17.439711
Os   17.154979 -14.001017 -21.315079
Mn   12.582306 -27.665689 -14.231847
Hg   -8.820494 -15.612919  -3.828971
Rb   20.118909  -5.483163   6.083676
Na   11.763469  10.936517 -10.458114
Rn  -10.164965 -18.785382  20.566950
Cd  -13.819488  11.647810 -22.054758
B   -23.127673  -8.917384  21.393668
H   -10.848666 -25.815713 -11.391366
Ba    9.274804  -0.125486 -25.439008
Dy    1.743979  16.516473   6.896173
H    -3.577020 -28.385864  10.198313
Re    9.735517 -11.252061 -12.485561
Rn   13.017237  16.601694  -3.328532
Pr    3.503976 -16.147814 -27.068805
Nd  -12.330174 -14.945189  12.864021
Sn    4.907536   8.528419 -23.496266
Yb  -10.981806 -23.929477  16.528442
In   24.803563   0.094918  -8.876169
Tm    3.449560  -8.832663  21.480103
Ce    6.582204  -5.886042  19.442271
Yb  -20.130523   5.539144   7.882751
Ne   12.284342  18.095357  -2.148196
Na    5.513708  -1.058384  24.067713
Y     7.270567   1.448676 -23.537627
Lu   -0.600912 -23.943219  18.364220
N    -8.235331 -12.602424 -28.757716
Hg  -20.418872 -22.646301  -9.908022
Zn    5.462863   4.460982 -30.168846
Sb   13.407168  16.755323 -10.068705
Ne  -12.243652 -24.339123  -9.394907
Xe    9.669544 -21.885504   6.681306
Pr   12.647664  28.158689  -2.500606
Tb   10.087277  -6.902743  -4.834980
Na   -0.990403 -23.422222  21.831212
Ar    2.259896   3.412394 -19.767035
Eu   -6.899696  14.707810 -11.919499
Ru   -8.887207 -22.543500   2.668544
Be  -19.400164  -5.279940  -9.750627
Cr   14.838942  -8.138858 -20.509375
N   -16.754104  19.132028   4.578523
Sb   -8.624180 -16.006184 -21.955992
H    28.988911  -6.896290 -15.458912
K    11.917802   8.787008  -3.812314
Mo    7.240694 -18.459541   7.644500
La    4.313561  18.269113   3.829218
Cu   15.270671  13.421351   2.067208
Xe   21.219963 -17.716681 -17.547102
Zn    7.970124 -10.895014  30.659613
Na   -4.096002  11.596303 -28.521182
Se   -5.753593  19.045584  -9.848981
Zn  -21.433399 -10.599656  10.342727
Ag  -29.949796  -4.011829  -5.323648
Zr  -22.837376   8.122036   8.557622
Cr    8.910543  -4.429753  29.697777
In   25.341499 -21.569125   0.898616
Po    9.021343  -5.695155  -7.498578
Cs  -24.012367 -22.659176   3.701428
Br   -2.244913   1.837462   8.082017
Li   13.416875  22.599533  -3.738970
Bi   12.158696 -13.958177  19.227018
Tl   -0.037234  -4.722649 -25.469321
W    -2.163559 -13.630069   6.312244
Ho    8.760551 -16.005695 -22.545688
Tm    5.515492  -7.481173 -15.295871
Nd    3.614154  17.661009  -8.524150
Rb  -12.087746   1.641489   3.856756
Se    9.350545   6.758594  20.654271
Se   11.877427  -0.026718   8.637784
Os    3.203329   8.499855 -27.882428
La  -28.691233  -8.716965  -5.050061
Os  -13.428791  21.849557   0.286432
Rn   -5.062856  -8.124876  -3.510164
Sc   -9.746191 -14.803503  24.052806
Re   -4.092657   4.318200 -17.967697
Cd   25.528565  -5.962554  -0.400491
Yb   -2.767418  14.050765   0.262053
Ru   -8.943343   8.756795 -30.673809
Te   23.059915 -10.893405   0.376343
Tb  -21.881362   0.132934   4.425666
Rh   -1.941002  12.206866  18.094805
Cd   14.993404  13.659500 -14.193252
Os   11.211887  -7.835145 -13.871125
Hg  -20.508386  18.791513  12.051501
Ta   28.550810  -7.766403   3.938577
Si   -9.916764  31.461501   1.811317
Po   -4.765203 -10.496864 -31.001949
C   -17.151486 -26.264843  -3.113932
Ta  -11.820719  22.706730  -6.946147
F    17.279658   6.885737   7.225697
Ga  -12.258508  21.940504   5.586159
Ne   -6.106589   8.689405 -27.942015
F     1.001596  -7.829249  18.109666
La   20.911109  10.471709 -23.422569
Ne    6.078872 -17.390033   2.179485
Rn   14.444677 -12.085430  27.808354
Rh   -5.723522  18.254962  20.683705
Nd  -23.844926 -18.816507  -3.822918
W    28.423065   7.427433  -2.702277
C    26.599455  -3.287046   8.081279
B   -15.562365 -20.961195  11.578305
Ir    8.902843   0.376286 -21.143192
Tb  -23.122133 -11.450074  17.928790
Rb    6.972634  13.136065 -27.958772
Cd    1.443303   2.761489   4.140215
Mo  -21.245164 -11.624929 -12.932046
Au   -6.189352 -24.404041  11.524228
Er   -5.340100  -5.602331 -32.170853
Br   -7.757436   0.006463 -23.799405
Ta   -5.520812 -13.011817 -27.290657
Tl    5.861332 -29.765461  -7.168934
Cr   20.654089 -22.289065   3.911889
I     0.653972 -17.203518  28.265844
Mo   13.063801   6.238674  22.444745
Co   17.694563  19.588003 -11.158687
Te  -20.019478   8.781024  12.988078
Lu   14.491719  19.756388  -1.675268
Xe   -4.952761  10.347285  -6.585744
Mn  -10.527293 -10.834495  -0.672378
Ar   24.240263 -14.970652   0.279589
Ru   28.070440 -12.726711  -4.117185
Te   -6.424889  12.816805  21.996130
Mo   20.931302 -15.754756  11.825712
As   26.348928  -9.718456  -4.667721
Li  -18.623616  -0.406165  23.375130
Mn   -2.726798  14.628508 -26.637111
Ge   15.117951 -17.017737 -12.498572
Pd    5.021314 -30.774380   3.795137
Cr  -14.949158 -24.410197  -2.348583
Tb  -15.199821   5.550686  -0.998008
Bi   -2.817693  -9.932631 -23.629439
Tm   -6.729005 -20.482166   1.739466
Li   -5.409765  10.821576  14.293286
Cl   13.453343 -18.038296   6.861984
Cd  -14.367706  28.187482   3.860551
Br   26.027193  20.333408   5.675109
H    14.445664  21.015413   8.521359
Cr   -8.886304 -13.420856   9.749319
O    22.998673 -19.178205  15.144941
B    10.317540   5.155778 -23.533001
Ce   29.862451  -2.621336   8.119763
Re   15.923742   8.333849 -27.606872
Ni  -15.115430  22.995065  15.440794
He   23.124780  -9.131984   8.097031
At  -15.037202  -4.481315  27.510600
Ag    8.763401 -20.385354  17.405858
Cr  -26.280093   8.153667  -0.021381
Be   26.427158   2.866847 -10.630276
Se   12.133088 -19.144237 -16.542270
Co  -13.003249  -9.220263 -29.385051
C   -14.383328  -1.591858 -30.205793
He  -15.412309 -28.064552   9.803825
Ge   -7.294549   6.634634  -9.236560
H    -4.696661 -15.204344   7.996294
Ir  -26.899356   3.401899   5.987782
Sc    1.617189   9.779273  30.433191
Ce   12.905384 -19.751356  -0.510250
Co  -10.640403  12.828411 -21.365775
Xe   -1.041990  -6.419858  20.325593
Ce    8.323270 -13.912506 -16.092364
Rb   -0.637302  10.822434  10.544395
Ni    6.784032 -18.949158 -16.975184
Ag  -15.000833  26.944572  -4.330026
Nb   20.325971  -1.078365   4.153651
Ce  -12.988506  12.373219   9.480340
Er  -12.889339 -20.795099 -11.433720
Sb  -26.856197   4.647868  -1.232819
Cr   -4.553029  12.104869 -15.496938
Cs  -23.118215 -11.015058  -5.695711
Xe   19.414236  11.845268 -11.736938
Au  -24.102939 -20.144192  -3.058127
Ar   23.558952   7.460683 -11.344202
F   -18.825645  23.063764  11.283536
Se    5.943422  19.317101 -15.766172
He    7.494500  -7.956844  11.003635
Xe   -5.721343  30.247017   2.198882
Tb    5.449289  -2.956318  13.820972
At   15.939236 -10.019494   2.715395
Ce   12.896877 -14.440321   4.330354
Sc   16.878409 -26.124120   4.543340
Cl    4.102143  -4.275078  14.870890
Bi    5.600846  16.702059  13.556672
Al   -4.138126   2.807149  22.219371
Co   -2.948080 -14.878306  20.592653
At  -10.456489  21.392471  -0.128149
Mo  -14.216041  -5.192385  -4.190172
Ge   -7.424117 -18.433215  -0.156627
Ga   16.219872   2.970957  -5.427068
Tb  -20.141578  17.970074 -16.024848
I   -20.414375 -11.170729 -21.954803
Lu    3.618120 -13.229632   5.879105
Mo   18.751265   2.227842  20.143638
Nd   24.945069  12.250922  -5.273777
V    11.794512   2.582850  16.162116
B   -15.043283 -13.548734  -0.423042
Rb  -13.272896 -10.689391   0.767476
Ne    3.960090  -4.893434  12.682760
Ti   -9.130401  26.635142  -0.871918
N    15.884220 -24.580522   1.500661
Mn    9.110598   9.932439  14.464513
Pt  -13.716688  10.533425 -19.292944
Sm   -8.851283  -8.539899 -13.005738
Na   29.215885  10.093666  -9.184698
Kr   10.924052  28.331986   2.243415
N    15.920098  24.898305  10.136582
Ta  -15.556029  -8.165638  -3.609935
Tm    3.121705  -0.942749 -24.058103
Yb  -23.411741   8.674665 -15.024170
Cs    1.009560 -11.455898 -17.870592
Ar   -6.376138  -1.289118 -18.436196
Ne    8.032751 -18.437165  14.058232
As   -5.076409   3.908216  -8.108558
Te   25.416764  13.003245  16.700040
La   -7.179641  20.434752   6.452775
Yb   18.316050 -13.595980 -21.813740
Sr   -1.397647 -17.713250   2.841783
Se    6.231872 -21.110632  22.946380
Rn  -15.687664   9.418638  -6.079629
Gd   14.382303  14.493655 -13.624680
Eu    6.400779  12.194344  10.949891
N   -13.981478  24.104474 -11.619352
Pt   -6.441736   3.964652  -3.590623
Ga   22.487609  20.917477   1.521962
Sb   11.207224  29.560890   2.301960
Ar    4.610912  12.271454 -21.796417
Ru   -9.010527   4.997546  31.709867
C    -2.173857  -9.710672  17.257661
B   -11.241059 -24.266478  -2.971247
Zn   -2.141048  10.764107  31.470460
Ne  -24.784473  10.091723 -16.864767
Yb  -16.843888  26.927624   9.200273
I   -12.369483  12.414287 -23.341364
B     9.585062   3.832932  10.906554
I     1.329384  -6.426810 -31.707340
Tb    5.618211  -3.551651 -17.511861
Os    6.001815  15.164637   3.263539
Co  -12.745022 -11.844027  -6.478202
Y    28.795981  10.582264 -10.774861
Au  -10.613486  17.894635 -17.497062
Ni  -19.460494  17.147203   8.798450
Fe   20.415036  -4.076861   6.017228
Ta    9.471562  31.454647  -1.325631
Br   -1.924163 -19.041158  -6.349807
Pb   -0.042567 -23.242915  20.439359
O   -10.349206  22.253909  20.759296
P   -23.735398 -21.683598   7.124077
Ru    1.684410  17.859998  21.800275
Tc   14.479972 -21.397265  -0.689145
Re  -15.904708  17.102965  22.233631
Rb   23.256502 -15.543315  -6.724800
He  -14.447459 -16.473256 -18.914605
Nd   15.686195 -16.224765 -12.148922
Ti    8.910105   9.496806   0.907222
In   -3.149269  26.542883 -19.215205
Bi   17.224268   2.681074  13.055668
Er    1.036274 -10.071899  30.809013
Ar  -10.709140  -3.184475   0.169661
Zr    4.638193  16.245683  23.246705
Gd   21.270861  16.283872  13.240438
Sm   13.845557  24.823297 -14.733166
B     5.098496  10.585213 -23.373683
Ir  -19.561414 -26.417965   5.733471
Rb   -7.962751   4.100159  26.069540
Ca    0.715609  10.093772  25.294601
Li   11.680533 -30.478326  -3.030304
Fe  -18.888498 -19.431343   1.717799
Gd   13.152848   5.103901 -19.369597
Nb   -3.076190  20.403412 -16.047110
P   -17.684965 -23.316737 -12.593208
Ag  -10.377288  -0.287717  -4.987075
O   -16.021192  -7.068629 -11.982585
As  -22.260325   3.987422 -17.610644
Li  -15.481722  13.077222  -5.814068
Nb  -24.853530  10.877830   1.843622
Ca    6.280145   3.035161  -3.362746
B   -10.991159  10.345715 -12.714493
Ar    9.049102  18.777742  -1.496245
K     3.642849 -12.598178 -27.259200
Te   27.959854 -10.893901   7.955325
Os   12.520329 -26.894489  -9.206222
Mg   12.089169  18.926644  10.533799
Ga    0.922541   1.295779   7.602461
Br  -25.770255 -17.068989  -9.673662
Rh   -6.295586 -22.631513  -8.618482
Lu  -29.336984   2.248145 -16.023683
In   14.587285  16.274172 -18.563745
Sr  -15.955141 -16.811829  -5.713122
Ti    0.852208  -5.919720   4.578265
Tl   10.607730  26.031909  14.458862
Eu  -11.701599  13.243530 -15.834394
Pb    5.807115  15.497755  12.152180
Mn    0.122991  -4.936800  28.443888
La   13.835089  -3.176684  -1.735899
Se  -26.316700   0.288909  13.483834
Eu    6.418003 -18.668723  23.402575
Cd  -26.988014   3.943883  -8.179106
Pd  -28.264111  -9.754663  -2.357729
Ta   -0.057915   9.135450 -19.230016
Yb    9.731017   7.624199  15.937819
P     6.424318 -20.261087  22.780081
Tc   -0.496019 -21.989369 -23.516011
Bi   -6.816706 -22.020200  -3.967157
Hf   -4.254873 -11.993307  -7.632687
Zr   -8.007179  16.404654  12.968748
Zn    5.611401 -14.505799   9.158118
Al   29.517466  11.219775   9.665074
Rn    2.666112  10.205999   2.083755
Bi   17.290928  -9.308187  -5.144370
Xe  -18.160553   9.320704   3.329902
Br   -5.955572 -19.267897 -17.976151
Al   -1.219143   7.846834  27.683841
Tl  -12.989311   8.799621  -2.094545
Po   11.664999  11.214943 -16.158233
Dy   21.517223  -8.989160  19.775021
La   11.598684  19.878851  16.584213
Sc   24.855663  10.360722  -8.835201
Te    6.018179   2.786126  29.057286
La   11.110259  -1.793912 -18.926094
Pb    0.305538  12.020212  -0.562236
Ge  -28.760046   7.671734  -7.271386
Mg   -0.094195   3.978041  -8.778998
S    19.210109 -18.833072 -11.742741
Sr   22.649097 -19.004846  -7.062248
Sm  -21.848916 -12.465984  11.289672
Zn    2.933335 -10.203852  29.384497
Ir   12.567131  -6.372275  -0.294664
Br   -6.615154   4.476309   8.936282
Sc  -10.591967  -7.475281 -18.774088
Si   25.694687  -0.695433   5.257192
Br   -4.643919   5.709338  31.521597
Po  -29.057229  -4.597395  10.835703
C    -5.770899 -30.157739 -10.318326
Tl    0.761136  19.882067  18.716159
Sn   10.563626  -3.539120 -31.624713
V    13.462460  -2.593414  15.068594
Ru  -11.134814  10.923675   9.208479
In    1.156611 -12.845327 -29.419155
Zr   -0.313997 -17.674682 -10.649686
Na  -21.401674  22.538888   0.669117
Rn   -5.590691  -8.962216 -24.187539
Pr   -3.919201  -8.039820   6.604263
As  -15.199701  16.163523 -18.217057
Cl  -14.240466  -0.221488   2.142726
Pm  -23.699307  11.469355  15.911889
Cl  -11.917451   4.446617 -17.348621
Tl  -20.866221  -3.247546  25.481081
F    -1.568214 -11.712036   9.054359
Kr  -19.380919  11.957812  -1.764429
Br   -2.104004 -17.175980  27.478728
At   16.066323  20.925908  -3.218690
Ce   -2.922464 -24.595733 -12.421541
He   13.561379  21.769746 -17.331238
Re    0.222328 -11.202616  26.979368
Cd   -3.927312 -32.337063   7.348666
Tb   -0.139147   2.215854  -6.921122
Ga   -5.210637 -16.545885  26.173703
B    25.006989  -3.426133   2.287985
Se    2.596482 -21.515050  11.700968
H     3.849772  22.353342  -1.020985
La   -0.980473  16.778393  -2.876387
Sm   -4.524271  19.189808 -10.418404
Zr   -2.751411  -3.904404  23.972902
Te  -17.974975  -3.764114   7.314750
Ti  -13.495477 -13.190034   8.056472
Ca    4.130371  17.628070  -3.222713
K     3.128398  -0.892171  -5.766776
F   -29.413941   7.960517  11.028015
O   -22.461385 -18.097246 -10.270819
Tb    7.260693 -16.456489 -12.281013
Ho   21.635750  -6.324081  -1.131374
Zn   -7.260343 -25.143017 -18.076096
La   -9.816422  -7.863415 -22.190170
Mn  -11.076203 -12.514702  15.054692
Rb   -4.530698 -17.178487 -16.870710
As   -5.728871  20.439656  12.076953
Ga   -9.046190  10.159006  13.732999
Cu  -13.329229  23.125924   0.546746
Xe  -19.539212   1.801313  11.378845
Al  -11.524056   0.495600 -10.531596
W    10.960071  15.870169  -5.587548
Li   -0.341465  15.617682  -7.215702
V   -19.581331  16.354224  -5.620424
Ag   16.923873   0.821754 -15.849405
Sn   -9.625521  14.683398   2.765080
I     3.996403  26.074241  17.889822
Dy   -7.039286  22.153151 -11.793493
Os   25.618009   3.575291  16.974165
Mo   14.514009   5.450984  -9.623755
In   14.912407   4.904736  25.602891
Ge    6.221614  17.301746  23.928483
Nd   18.880145 -18.821905   3.237088
In   12.394204 -21.058071  -5.498977
C    -4.131143 -27.598784  13.685258
Re  -25.239921 -20.739844   0.410716
I    12.059383  -2.306475  11.896415
F     9.215735   1.482267  19.967411
Zr   -7.711589   2.331580 -13.909524
Ni  -23.759052  16.831880  -9.216562
Hg  -24.288188  -5.397289  12.636672
Dy  -12.256044  -2.371128  29.233149
Rn   -5.405022  22.576756 -17.569515
Pt    8.325900   5.460662  15.292730
Sr   13.762753   7.590693  23.658696
Cu   17.363775  16.151970 -11.551349
Mn   23.910330  -8.719769 -11.830430
H   -15.929777  11.188110 -18.094558
Mo   -5.826181 -12.137925  -9.785683
Rn    6.965081  -7.482468  28.802837
Na   18.383083  -4.314534   3.162523
Sr   -7.351137   2.611862  30.997899
Po  -22.051434  -7.421015  20.065499
S    -7.691593 -14.351905 -11.020007
Ga    2.449934  16.912160 -10.981823
Nd  -27.416940  14.663865   1.835896
Cr   21.068979  -0.606301   0.386453
Cr   16.297549  17.086703  -9.738633
Ge   -7.445044 -24.148576  18.898063
Cu    6.004345   7.494010  -7.547233
K    14.322752  16.768280  -9.432014
Kr   -4.458982 -18.209583  24.832659
N     1.361076 -25.841564  -2.262514
Bi   -2.833454  -4.744197  13.159085
Co   15.482289  -5.238086  17.948755
Re    9.442367  25.268781   7.227515
Kr   16.939744 -10.238836 -14.150242
Ru   -9.838116 -14.545437  -3.626160
N   -19.223021 -10.007789   7.635779
Pt   25.081010  -2.289194  11.672762
Po   12.896198  16.037715 -12.445578
Sc   27.706393   6.374013  -0.356392
Eu  -17.357026  -3.687235 -28.140728
Kr    7.303454  30.468346 -10.275848
Au    4.636271 -28.720020  13.873996
Sr   31.915405  -4.059839   9.173979
K    21.464887  15.963290 -10.594140
Lu   15.049811 -24.275156 -12.076713
H    24.332504   2.691267   6.283898
Dy   15.478667  10.214657   1.436218
Ge   26.419256 -17.879080   3.732516
B    -0.310385   7.063789 -20.629996
Re  -19.234438  21.385044 -13.828553
Yb   21.253366  -3.984443   9.499495
Cu    8.761693  18.473916  -4.712155
I     4.497882  -5.056578 -17.971411
Nd   12.385535  -1.798487 -26.107175
Nb   -1.375708   1.878818   3.571131
Zr   -4.640343  -5.729245  28.897700
Bi   -4.660645   2.274101  29.388204
H   -18.029706   3.188997  24.539481
Ce   25.330191  -6.626796 -18.120825
Zn   13.867707  -5.719687 -23.363396
Sc    3.811820  -6.198697  23.121342
Hf    2.112230  -0.292595 -26.897998
Mn  -17.739732  21.946037   5.421202
Eu   -9.497029  15.637395 -21.630376
Ce   -0.104322   5.138521  16.626540
P    16.489280  27.018448 -10.777144
Mn  -11.536412  -8.773274 -16.079426
Tb  -19.464937 -22.713138 -11.937263
Hg    8.578666  18.356336 -18.814563
Tm   18.710419  25.265449  -0.730993
Gd   29.948418  -9.280156   1.580119
Rh   15.381215   9.118395  -2.761229
Sc  -31.191020   7.100920  -4.752458
He    6.937577  16.988619  22.613129
Au  -10.216505  10.947163 -17.163589
Yb   19.972860 -14.079159  -7.838943
Rh   20.409273   0.023028 -11.648636
Po    5.075324  -2.934934 -26.649751
Ne   -0.278524  31.079745   6.270559
Lu   -7.906109 -26.111991  14.899237
Ag   -4.256802 -17.785894   6.930140
Pr   -1.762351  -7.840559 -17.124970
Na    6.278261 -22.575853  -7.156114
Pm   -1.506573  12.675135  22.579784
Ag    9.082867  20.708555  -5.351184
Yb  -24.860714  14.948496  11.760062
Cs   23.345106  -1.222665 -11.205616
Tc  -30.733565   5.212689  11.347180
Tc  -15.170805 -15.509807  19.727517
Dy   -8.819123  -4.736279   4.955905
Sn    9.203387  -1.724748 -28.301113
Ge   -4.395384 -11.520143  -5.311936
At    4.949443 -22.120295  -3.624817
Ag    5.762025  -0.524130 -28.826162
Ar    3.960858 -22.459574  -6.610783
Si  -10.768686 -15.206437 -16.595877
Hg    0.143609 -25.636970  -0.959066
Cl   12.565969   9.367859 -18.155814
Ge   -4.726436  17.859186   6.077905
B    12.716836 -13.441462 -19.132022
Cl    6.561242   5.298700   6.115552
N     6.994024  20.671728  23.815073
P    24.983364 -16.546809 -13.134004
Cr    9.264586 -28.050918  -1.027795
Ca  -12.914312 -16.219428  15.147945
F    19.561488  -5.377071  -3.036666
In   14.895074   2.228410  18.551059
Po   -7.022357 -25.352198  13.860608
N   -18.838303  -3.321424 -13.592638
H    -2.442946 -29.976997   2.482970
Ar  -24.255977 -20.757806  10.114454
Ni   11.629636  23.881642  10.095983
Ba   -0.850097 -15.700805 -16.271118
Os   22.847874  -1.317450   2.711977
Br    9.724946 -22.204282  -4.855618
Mo   15.079728 -10.251697  16.484076
In   -4.040389  28.933144  -6.028694
F    -3.117647 -10.239922 -25.649281
Cu    3.225021   1.060972   3.502688
V    -1.962122  -2.180419 -22.453962
Ru   15.117400   6.291114  23.557906
Gd   -2.418846  22.264545 -22.369909
Au  -23.748056 -21.645208  -6.200183
Ba   -4.927883   1.870439 -24.615164
Li   -4.462509  19.772403  14.022474
Na   -8.668791 -16.176422 -11.762929
Be   18.669477  -9.244905   0.238347
Sm  -14.519109  -0.057896  -4.731293
Zr  -18.013823  12.048541  14.254505
N   -21.507371  -9.745936 -21.838454
Po   -1.545001  10.889500 -21.561576
Sb    8.852992  -9.982956 -18.490699
Dy   12.092774   9.904549  -8.776787
Au   -7.810284 -16.112579   3.832881
Pr    3.074456   0.103417  15.084689
Ho    7.867992  -9.512653  22.352170
O    12.157903   6.100515 -16.227472
Ti   24.049521  -9.388850  11.909823
N    -7.581385  -5.398994  20.685258
O    16.498089   3.266998   3.197382
Ar    1.561367  13.985831 -20.688959
Xe   -6.627523  -1.993726 -31.555481
He    4.681020  23.355818  11.664685
Pt   11.508739  20.350070 -21.877284
Si   22.337368  -3.241318 -14.215030
Cs   -1.279196 -12.648460 -10.246956
Nb  -24.453510 -15.736676 -15.972464
Co   28.450355  -4.183612  -1.550355
Cd  -26.782347  -7.774896   4.422550
Se   20.632243  14.810413 -17.513836
Be   29.667601  -0.510629   5.227250
B   -24.573518   2.635893   1.253002
Zn   -6.727937  21.330158 -16.363067
Al  -10.480528   2.458809  -8.173989
Y    -4.694825  -1.935669 -23.768883
Lu   -2.990075 -18.760720  16.269900
Pm  -25.398913  15.808595   7.007581
Pb   20.451082   5.672691  -8.313752
Ta    0.002775   6.770940  -7.419018
Ba   13.961313 -23.443692   3.260761
B    22.946021  15.322606 -11.075975
Sb    6.138494  17.167950  -2.940535
Se   -6.655534 -11.253593 -22.644473
Te   -4.285772  -9.595090 -19.268153
He  -24.005422  19.144914   1.952708
Bi   -6.481208 -10.334570   1.662862
Zr  -12.526839  22.973601   6.506511
Gd   -5.322205   8.046412  -4.734344
F   -14.021880   0.062885  -3.144544
Sc    1.376810  17.494536 -15.313761
Pt  -14.657956  -6.198135 -22.541207
Se   -4.794835  31.295199   4.932410
Kr  -19.633692  19.738600  15.084950
Tm    3.883086 -27.881606 -15.271418
Kr    0.273527 -32.247208  -7.406256
S    -9.840885  -0.053361 -25.768245
Li   32.404687   5.095942  -4.492908
Cd    5.511967 -24.273630  15.982245
Dy  -11.930244  -2.971915   4.365384
Rn   -0.244410   0.797768 -33.437791
Sr    5.967091 -11.099218   3.170435
Sb  -14.484755 -11.395001   0.506969
H    16.371820  25.464433   9.633329
Te  -17.510529  -9.654819 -12.925697
Rh  -15.780185  13.657915 -11.616517
Os    3.718543  24.546499 -14.667745
Cl   19.306352   0.169970  -8.198917
Te   23.328116  -4.371849  23.352325
Dy    2.285110 -24.919696 -18.110618
Ge    6.658781 -25.727665  16.976374
He  -15.025909  14.754930  25.829669
Tm    0.388381  -2.742078  -0.311537
Yb   16.513191   7.445395 -11.657973
Cs   23.888418  -1.756541  20.915830
Sr   -4.163644   1.574462  21.961852
Ta   14.582022  13.801955  14.236964
Ho  -15.794954 -15.190152  -0.177038
Ge   17.415127  -1.220704 -27.932233
N    20.154574 -24.623596  -6.685637
Sc   17.038620  18.279230 -14.109726
Ga   12.459368 -15.528745  -6.978518
Au   -3.293584   3.894974 -25.330826
Zn   13.966049 -17.534843  -4.079407
Tm    1.371163  -0.829120  14.349195
Gd   -6.797118   8.614266 -16.946344
V     4.454785 -26.026816  10.556519
At    2.379125  -8.736336  -8.173981
S     0.787579  10.311259   3.278738
Pt  -13.707858  -8.307115  -8.997000
Cu    8.803972 -20.453937  21.362286
Sb  -32.570606  -6.744970   1.326842
Rb    8.565554  15.555112   8.642446
La   -4.024865  29.849677 -13.347585
Hf  -11.751039  12.737292   7.920748
Si    0.105528 -17.966072  26.551056
Cu  -21.654695 -13.820459  -6.450700
Fe    7.699932   8.316714  -5.439008
C    11.964087  -0.664030 -23.172027
Tb    3.513336 -22.677222  22.699374
Rn   22.395586  -3.908544 -22.688619
Sb    4.162647  20.151040   5.380627
Rb   13.117584 -12.428416 -27.514607
P     0.603312 -31.186347  11.835150
W    10.477093  -5.895831 -14.284496
Te    4.895815  -9.742788  23.447991
Ir    1.510557  -0.286265 -25.848037
Sm   10.747589 -11.847836  12.623791
Sb   -7.492395   3.692531 -12.939664
Be   -2.041646   0.816961   6.723304
F    -0.807320  -5.562916  10.226687
Hf    6.468279  15.130085 -10.890828
Tb    7.202763  23.110146 -10.424028
Ir   30.588839   0.794619  -3.256038
Ir   18.109229 -17.846011  -6.835712
Tl   -0.046545 -12.941427  28.413743
In  -16.030764  13.958943   1.985409
Fe  -15.146454 -26.418031 -12.445166
Rn  -14.183560  -0.228446   4.416195
Si   21.620009  -1.516444 -18.159070
Ar   -7.742081   7.536218  -0.204643
Os   15.760531 -16.612991  20.842983
Yb   14.434926  -6.650094   4.628624
Ta   -8.117520 -12.933477  28.938098
F   -12.465128 -19.474935  -0.215641
Pd   11.021997   2.652938  -0.196006
Sb   -3.680864  27.306241  18.332470
Y   -22.055745   6.862792   0.113316
Be   -8.771228  -4.089493 -27.283530
P     4.541796 -23.028422  -3.551820
Tb   -8.311543 -14.752074  19.224383
Tc   14.862905  -0.486038 -20.690650
Ar  -20.491918   3.241983  -5.226048
At   -1.951811 -21.455280 -16.517343
Na  -13.431487   3.532732   5.371559
Pd   -7.583226  11.514540 -15.935355
Y     7.445693  12.996659  -5.383608
Er  -29.588991  -1.741878   9.466011
Se  -11.322851   1.926358  27.114803
Os    6.432852  14.110999 -25.689706
Pt   21.946310   5.565367  -6.012690
Bi   21.454371   3.370200   3.933898
Rh  -10.119561  -7.012426  18.870373
Ge   14.929047   8.101740   5.176746
Co  -12.232946  11.899680  15.526309
Ir    5.243710  -9.482680  -4.285616
Sn  -17.511700  -3.066403 -23.726501
Li  -25.768498   1.410251   0.322044
Ce   -2.484462  -8.519521   7.495111
Ge   -4.525453  30.298499  -0.737876
Sm  -25.238326  16.438121  -9.683855
Dy   -4.725901  10.153739 -23.611713
Ce  -23.269425   1.401676   1.263921
Li   14.923995  18.397485 -19.907290
Ag   -4.120827 -14.724057  19.464597
Os    3.570895   9.824878  -7.602632
Cr   -9.954581 -11.145888 -28.234154
Os   -1.166499  -7.976263 -12.729777
Sb    2.191859  -2.422464  -3.186523
W    27.854596   1.539588  -2.087804
Ag  -22.410321 -11.954787  13.677731
Hf   12.643713  16.502043   2.287823
He   -6.158424   0.879991   7.573169
Ta  -11.511464 -27.023866  14.499275
Ga   26.565539  -0.802938   8.975334
Zr    0.812787  10.929483 -30.438653
Co    5.468622  31.460288  -0.658793
Ba   -1.972562  -3.865878  23.286512
Cs   29.031203   2.118083 -12.973692
Er  -16.317148  -7.255693 -28.147880
Pm  -29.161734   7.023043 -11.114103
Ge   -4.157771  10.424787   0.122726
Cs   -1.726881  23.269914 -13.614755
Ru  -14.420652  18.307353  -3.529275
Sc   17.560071 -14.855571 -14.565792
Rh   -6.113517   9.661500  19.928391
Ir  -20.587541  -3.253074  -5.370587
Y     5.933214  14.174742  -8.201255
Ir   -5.467679  11.234862  12.143408
Mo    3.551020   4.500415 -18.607192
At   30.088625 -10.741444  -4.600542
Kr   12.598460  16.339770   7.689093
Nb   33.290242  -2.026951  -2.163925
I   -21.063468   0.087168  12.653271
Er   18.824963  10.548919  21.619585
Hg  -18.298519   4.783500  11.095576
Sr    6.374778   8.843861  -5.839275
Co   29.508298   9.510325 -12.657180
Ca   20.910751  -8.150442  -5.885525
Hf  -23.371330  21.835717  -3.613070
Gd    3.638169  19.813037 -11.343449
Ta  -12.408092  21.304146 -22.277743
Nd  -17.548694 -11.176048  17.685541
Hg  -16.576469   6.784773  11.276492
P     8.375851  13.930728  -7.241029
Au   13.769436 -10.209004  28.082211
Dy  -22.083810  -4.180589  19.694787
Nb    5.051635 -30.217857  11.692057
Sb    2.329565   1.444805 -11.242386
F   -17.572875 -14.508395  -6.115488
Os   -2.696015   7.631497  15.688431
Ne  -13.773615   1.543793  26.734592
Co   30.290140  -5.105228 -13.673622
Gd   12.657117   9.540336 -28.584829
Rn   19.690893 -13.359905  -6.534393
La   28.872677  -1.400483 -14.052250
F    30.747730   6.043256  -4.782371
As    1.125729   9.677210  -4.297148
Al  -17.815941 -16.150118  21.155814
O    -0.818538  27.765449   8.437200
Ti    8.558587  -6.755011  22.044862
Pb  -15.026070   6.708824  22.325500
Sb    1.748308 -31.417091  -1.686840
H     9.383569   5.111476  -3.427503
Cd   11.489842  -2.378797 -24.637561
Br  -10.117691 -13.842101  18.371781
Tc   -0.980981  -6.204105 -20.227800
Mo  -14.188592 -29.820945  -0.232139
Ne    5.848887  31.053563   7.130573
Pm   15.887200  -2.321606  10.174591
P   -14.711160 -18.848841  11.719613
Y    13.889797 -26.607921  15.064427
Sm  -13.582250 -26.011608  -5.100729
Y   -16.428245 -28.916984  -2.294817
Ne  -17.910509  15.330251 -23.417855
F    14.559902   6.083243  28.344611
Ho   -7.928876 -15.000792  26.674607
W    -8.220320  18.467226 -16.196207
Ca   -5.539265  22.721290  23.042853
Ga   21.877710   2.685237  -4.599324
Si    3.489335   2.492828  30.068680
Ag   15.864826   5.263257   8.781356
Be    9.067929  22.505679  22.660953
Tb   19.863424   8.560727 -18.464353
Eu   25.654329   5.367575  11.773090
C   -28.823041 -12.401407   9.142538
F     1.826695   0.969677   5.237075
Dy  -12.441655  18.549211 -18.223597
Ba   -7.569794   5.399066  26.563500
Se   18.257109   1.429294   3.790051
Nd  -19.378004 -16.630032  -9.119457
Ga    3.358029 -22.829956  15.003266
Sm  -32.468048   7.790630  -3.622989
B    12.102920 -15.291339 -11.880044
Li   24.001585  -5.492613  13.875984
Pm   14.573254 -20.104874   2.086911
He   18.037587 -19.190711  13.669350
Rn  -23.092901  12.408841   2.477144
Ba  -12.849144  16.131711 -11.440799
O    -7.439161 -19.514136 -21.693309
Dy    1.282241   9.117312  -0.639940
Ge   28.738081  -6.398609  10.071477
Mo  -14.179458   6.592678  14.197338
Sm   -4.341897 -19.670131   4.899247
Cl   18.383064   1.744405  26.756235
La   -2.489494 -25.898850   8.239871
Cd  -16.891414 -10.278770   7.939983
Sb   12.194089   0.820804  24.321645
He   -5.400289  19.525963  22.476927
P    20.096392  14.884764  11.283231
Sn   22.247370  19.257649   0.918271
Mn  -30.111763   2.280122  -0.383508
Ne  -32.454453  -4.400451  -0.299486
Ga  -17.419042  10.749836   1.451492
Tb    3.803010 -15.886249 -16.717557
Ar   31.625790  -2.731216  -4.020491
Tl   -2.966829  -9.713877  11.471456
Pm   -9.416774 -18.503940 -18.838918
Br   14.352971  22.432435 -14.788016
Ru    2.136340 -22.984228  20.641919
Br   -2.808341  12.286550  -5.497997
Rn  -27.108894 -11.829682   5.077196
Cr   -2.995318   8.561062 -14.158155
Al  -16.971978   0.642205  16.241558
Cu    4.629093  24.474912  -4.163368
As   -3.728729  -8.875831  -7.293942
F   -19.900572 -13.055107 -20.694667
Si   14.124130  10.648900   2.411101
Kr   14.475692   3.016432   6.077666
Pt  -11.338874 -11.710476   1.966593
Tb   -6.043527 -26.830477  10.958247
Fe   21.643839 -17.306651   9.479514
Rb   21.988744  -2.043096 -12.168313
Tb    4.028890 -13.116429  21.390202
Kr    2.878698 -11.461501  16.918658
Al  -20.417073  20.770727  -2.849445
Xe  -11.919904  19.627189  18.836403
Al   15.258726  20.209087  13.376789
Mo  -27.916452  10.998592  13.547365
Ru   -6.562633 -16.350858  -0.152525
Ta   31.567919   1.985768  10.390172
N   -20.431433  22.017677  -8.319125
Kr    5.164689  10.189546 -19.095846
Ge   -5.846805  17.915554   6.380941
Pt    7.759757 -12.852976 -10.554786
Sr    1.550461 -24.984057   7.358749
Y    13.218498   1.855192 -12.499236
Tl    8.127493  26.571867  -3.385576
Na  -14.683161 -19.058575  10.816660
Cd    9.909437   4.542627  12.861702
Lu  -15.147278 -16.688794  16.416048
La  -28.287145  -7.958636  -4.137842
Pt  -16.521935  -8.181883  -7.108967
Ce    1.168882  27.653743   9.072611
Sn   13.317961 -11.762338 -20.862640
Po  -22.385539 -13.496372   6.229586
Al  -14.176485   4.794390  19.971855
Te  -16.975596   7.110228  16.842931
Au    3.600189 -19.701735 -23.316640
Hg   19.853845  -7.843025  19.685981
Nb  -18.002429   5.792811 -17.847640
Rn  -18.964751  -1.801721  12.985362
Pd   -9.316203 -12.110415 -24.147354
Ce  -13.581140  -9.488227  -6.802631
Cs   -1.830231  -4.236023  19.416757
S    27.904650   3.832146  -8.910768
Hf   21.221358  23.265618  -9.335069
Dy   -0.667310 -28.915243  -3.974585
Pb   26.727918   8.607911  -1.031458
Al  -23.181592  20.970477  12.263648
Pr    0.596477 -13.744678 -19.768757
Er    0.784175  23.887751  -1.393712
Pt    0.966316   7.041042  16.347107
N    -9.038801   8.440047   4.424534
As    5.337902  16.008615   7.592733
Kr  -10.648311 -28.801406   4.048666
S   -15.328169 -13.660052  17.720653
Gd   27.898361 -14.965922  -4.369496
Tl    6.619493  17.517117   8.148025
Nd  -16.607692  -7.629332  -1.181984
F    11.043698  24.400231  17.332019
Pd   -3.520699   6.159953  -1.566404
Rn   21.835600   3.045380  21.023580
N    14.185179 -10.510924  26.146877
Ti   10.245772  -9.362444  -9.087602
Cl  -12.570165   1.340154  -8.496436
Nd   23.374337  -2.764628   3.407646
Re  -18.390700   6.356249   8.841745
Cs  -13.606870  10.914606  11.156615
K     4.485822  -0.501257 -10.008071
Lu   -5.399553  17.399247  15.968618
Li  -14.708018   5.180529  17.539832
Ti    0.844305   9.470678 -12.101716
Ba   -0.589755  29.561866 -10.838477
Ce   10.963704   4.609972 -24.772041
Nd  -11.376365   1.385138 -25.494137
Na  -12.138259  10.764384 -22.319161
Pr  -13.508376   8.055135  16.172711
Kr  -29.248586   0.074843   4.322710
Se  -15.510661 -11.550514  -1.809582
At  -11.302423   7.707857 -25.594118
Sb   21.350456 -12.550005   4.957162
Pt    9.146914 -22.830810  -4.210448
O     7.704305  -2.951561   1.022628
Eu  -24.022875  11.990625   5.251201
Dy   21.607998   5.852741 -23.145109
Gd   10.671776  18.435032  -6.726688
Tm   -1.621867 -15.663261  10.219370
Xe    5.358299  21.783065  13.519835
Br   -3.365917  18.305626  17.040740
Ce   -4.449737 -15.578123 -23.119195
Er   -0.959917 -13.856863  16.962681
Sn   -4.601773 -31.618413  -2.924156
At  -15.564251  24.019726  -5.720561
Ca   -4.917313 -24.620023   3.706829
Pd  -12.359832  12.610629   6.501714
He  -13.004589 -23.756560   8.932181
Os  -24.141880   3.565921   1.149378
He   18.067414 -24.696396   2.677453
Y     7.539116 -11.791846  -3.802729
Sc   27.720075   3.042814   6.645761
Gd    8.501254   6.400886   9.827511
Hg    2.638695  -4.366602  -0.642573
Be   -8.115894   7.945750  11.263794
He    2.015954  12.409368  -6.726769
Mn   16.325347   5.447581 -24.657166
Ar   17.740999   2.305798 -14.956418
Ho  -10.495232  16.364669  15.544414
Hg    2.297661 -19.187780   9.605561
Cs    1.663867   4.021126 -27.101805
Na    2.634910 -21.975715  17.987825
He  -15.058285   8.531625  17.833133
Pm   -4.271547  23.435656  23.241311
Mn   -4.532920   0.110189  -2.046303
Pd  -18.002357  -6.560286  -2.599336
Rh   -3.709237  -5.210503 -22.562538
C    -3.460867   3.671454  -7.777763
Nd   17.370728  -8.875089   3.783721
Y    -1.124921  23.817822  23.348591
Pr  -10.164428  16.909499 -26.599511
C    -7.697485   3.415041   4.478099
Ag  -15.929862   8.492296  27.524226
C   -15.772618  22.685499   9.921909
Br  -15.338589 -27.937471  -8.526510
Fe    4.429442   6.980348 -29.901884
Tl   21.583293   5.527679   2.560175
Cr   -0.058693  14.339501   6.405031
Se   -7.185441   7.144313 -28.227806
Cr  -12.457341   1.962031   1.211562
Pr   14.833882   7.105813  14.132375
Pt    3.495924  29.774710   8.477848
Mg    2.078356   5.227894 -12.342808
Ru   10.999652   4.993638  11.468646
Nb   -2.995648 -13.392990  -9.643248
Si   -8.143934  13.530926 -21.879694
Sc   16.802013  10.558715 -26.879502
Zn  -17.087716  17.365804   6.928445
In  -10.670700 -31.244539  -0.075482
Ce    8.229256  19.567398   6.147048
Sb  -20.376738  12.851472   7.252541
Bi    0.805146 -15.323513  -9.943790
Br   16.089803   7.589529  -5.101358
Rn   -1.403732 -14.582380 -11.391541
Pt   25.209827  16.650608  -4.534233
Cl   -7.186558  14.939629   3.281392
Tb   24.851631  -6.790197  17.356819
W     9.517290 -18.558856  -5.633528
Mg  -10.546997  19.045416  14.679442
La  -17.366810 -11.985750  -5.845232
Sn  -16.870043 -23.044793  10.305080
Dy    8.868328  -9.410767  26.482182
C   -29.885037 -11.782874   5.020773
Se   27.381401  -1.963071   5.457670
Nd   -5.908235  11.691146 -30.596840
Ba   -2.954971  20.121927   9.619087
Tc    2.497338  11.295166  -8.129473
Cl   17.943039  16.809545  -3.801240
N   -15.968527  21.090332  -3.063099
Eu   -6.416688 -10.926614 -25.515409
Ni    6.152642   0.474066  17.421716
Ru   11.434177  -3.225878  24.391769
Cl   -7.553414   3.422073 -10.163645
Yb  -16.654285 -26.468962   9.845661
Os   13.451996  22.924251  -1.439259
B    14.255693 -13.207013 -10.717855
Pt   -2.338522  -5.186528 -26.537711
Sc   13.209845   3.491615  18.247018
Zn   -3.782725 -20.468765  22.282463
Rn  -12.501206   2.341848  -4.631820
Cl  -11.520646  -8.286441   7.736465
H     1.610890 -10.878590   5.494680
Fe   -6.581364  -9.174637  -7.367892
Yb   -1.997123 -16.321030  17.338556
Fe  -12.348176 -18.235424  21.457196
Mo   10.352281 -15.614562  -0.739081
Ce    9.400755  24.211152  -0.250171
C     0.738920 -22.687459  17.978823
Se   -3.020332  -1.108747   9.357793
Tm  -15.947786 -20.736783  -2.612361
Rn  -21.792572   3.436571  15.448682
Te  -15.784323  -9.722826   2.966762
I   -19.993752  -6.109045   3.586999
Yb   -7.456928   9.190693 -12.397031
Sm   12.123046   1.526379 -13.989040
Na   16.699756  16.460133  20.400352
Dy   -3.782641   8.979212  15.837281
As   -1.748765  30.474304  -4.584153
Ga    8.591235  27.862056   4.416599
In   16.067035 -21.625594   6.811325
Ru    7.968334 -18.603591 -24.628620
Y     3.030563   2.617549  23.025784
Eu   -4.018593 -18.448785   9.242389
Ni  -24.123459 -14.213515   1.205661
Cs  -21.014682   0.383516  13.961927
S    14.693376 -19.925781  16.922058
I    -7.002968  16.046683  -3.721835
Tl    5.157088 -11.868292  -6.786396
Zn   -6.767951  26.670179   1.185531
N     4.113615  -9.234383   4.586709
Nb    5.525021 -16.232346  23.263531
Zn    2.959802  -1.899895  17.713491
P     1.834358 -13.187800   9.514537
La    9.544441   0.186043  19.659847
Br   23.997668   9.591440 -16.561346
Kr   17.672290  -1.239892 -19.688176
Y   -11.858277 -16.985604  -2.424786
F    11.511035 -10.828402   6.623742
Pm  -14.953953 -12.866968 -24.625207
Os    1.549691   5.895388 -25.770259
Ir  -10.340645  -0.706985  18.336632
Sc   20.368754   1.619716 -16.896554
Pr   10.509305   4.567580 -21.570063
Lu   10.471337  -9.786361 -12.372783
Pm  -10.255642  -9.482974 -13.897760
Re  -14.635158  24.137785   9.937542
Sn    2.255016 -26.599671  -6.844909
Al   -0.279123  18.565979  10.374573
Pb  -20.792739 -19.769823 -14.302944
Nd  -18.767124   8.591801 -19.006527
Rh  -10.040059   5.770040  -8.714261
Cl  -16.025074   5.681882 -14.169575
Tc   11.673281  -0.798294 -29.302967
Fe   -0.123551  -4.253928  14.786379
Li    8.030205 -27.628633   8.035517
Fe    0.345602 -31.145317   6.829048
Nb    1.032345 -18.563635   4.602665
Nb    2.262470  26.856962  -3.195138
Tm   15.368588  26.752081  -2.043426
Pd    2.483762  -9.410586  16.290229
Pt    5.026396   9.710243  -5.528242
As   20.431539  -9.100129 -24.882445
Cu   10.924996   3.793074  26.067969
S    28.918268   4.949429 -11.310298
Lu   -6.206760   6.427400 -19.650144
Sm    0.099758 -32.809241   6.423237
W   -12.104089   2.025481 -27.857951
K    13.980892 -11.744541  22.935604
Po   -1.249965 -30.869773   7.069149
Na   -9.458714  20.496534   0.702601
Cs  -15.704486 -24.847735  14.277634
Au   21.335342   5.879499  -0.644594
Lu   13.591571 -12.658366  12.456872
At  -11.999605   4.796932  30.881081
Nd  -16.483232  -5.109047  27.246658
Ir   16.015248  16.412958   9.795253
Po   10.366136 -25.066526 -18.074096
Mn    1.046051  19.199279 -10.058243
Y     7.729836 -17.540319 -20.692860
Lu  -12.072719  -7.424455  29.938409
Rn    5.267368 -15.190193 -15.540786
Cu   -9.805610  -0.576538  -1.337505
Ga   -6.742035  10.929387 -17.927890
Hg    3.961082  14.053200 -19.633951
K    -8.999610  10.873262 -15.328949
W   -25.092549 -18.355945  -7.934595
Pb    6.528728   7.567490  -2.093676
Ba  -24.402286  12.309285 -11.772651
Pr   17.625812 -25.234347   0.909693
He    3.753000  26.213078  -9.980025
Gd  -12.807599 -17.776801  -2.019970
Be   24.022389  -3.405350  21.756732
Sn   20.586408  -1.848684  -1.219223
Rn  -14.186467 -14.883309 -18.692230
Xe   -2.712591 -15.341039 -19.587327
Tb   -2.088100 -13.380744 -23.478376
Po  -18.642512  21.033578   3.011042
Ce    0.820846  25.626590   1.416431
Nb   21.670608  15.787632 -15.891880
La   19.281004  -7.330223  -2.107643
Ca   -6.198928 -20.238362 -13.088756
Ba  -16.496459   0.087566  -0.379812
Gd   26.717407   0.245361  -9.018517
Na  -28.492932   4.729284  15.076828
Li  -22.484955  -2.744581  21.865599
Ag  -10.239710 -24.105377  -4.318116
W    18.671877  20.478333 -11.416255
Cu  -13.961756 -20.887651 -10.340052
Mg   -7.691591   1.652476 -12.567607
N    15.457786  -4.403817  -6.906351
Pb    5.671741   0.375513 -30.969657
Os    8.536793   4.034961   8.058412
In   -1.971465  19.474504 -16.817055
Ta    2.015793 -27.431316 -17.236423
Sr   -5.082186  26.803843   9.504305
F   -18.688754 -25.341146  -5.530513
Na   26.087384 -13.771121  -7.001457
Tl  -18.964603 -18.715005  17.382504
Y    -0.961483   0.054589 -23.443973
Nd   -6.856313 -10.376366  -0.550888
Cs  -18.432171 -14.604237   8.086436
Au  -23.060045   8.874695  -5.067871
Ge   -9.995821   0.437369  20.006937
Y   -17.371654  -4.474258  10.234490
I    19.321320  11.125975 -20.932827
Pd   10.710915  28.880132   8.730569
Na  -24.725584  -1.660547   2.694678
Be   10.299690  14.757070   0.714769
Ir   -3.752100   4.702074  -8.006655
Te   20.617443 -10.210853  11.006734
Nd   23.599352 -11.921108 -19.411825
Au   -7.973821  21.950489 -19.044972
Al   -8.906765  17.591021 -26.062025
B   -20.855281   1.085964  -3.682704
Ca   29.117861  -8.047436   9.118271
Cr   27.701231  -4.019226 -12.251361
Zr  -15.746627 -12.614521  18.487361
Ir    3.225157  20.529693  21.355818
Gd  -11.173169  10.829410  12.735505
Sr   -5.795079  -9.890384  25.508147
Rn  -20.692909   8.579512  11.197128
Mo   16.706475  21.701655  17.820707
At   -2.850786  -8.125288  -4.931084
Mg    2.725655 -14.777316  -7.408340
Sr  -11.189313  11.216722 -18.134755
Ir   -3.923852  -0.292771  -9.966706
Sm   -2.843011 -11.262956   4.857640
In   -1.469142 -15.424606  11.326194
La   20.901452 -22.715031  -2.667111
K    15.346022  -3.756982 -17.979238
Cd    7.682267   0.016642 -24.720981
Sc    0.850560   9.136562 -21.407069
Cr    2.575171 -17.523308 -24.314265
Ba   10.667706  13.881238 -18.829887
Eu  -12.936796 -12.290427   1.302764
Tc  -30.029198  -7.477810  10.812448
Pr  -13.509210   7.299612  19.302223
I   -15.108656  11.789595 -16.451653
H   -28.753349   4.773872  12.938521
Ce   -1.694663  -4.601978 -14.355612
Xe   -8.780005 -16.054132  25.685106
Al   10.502497 -29.764007 -11.281650
Dy    0.511523   4.908025  19.378752
Zn    8.220453   9.635387  -6.806356
P    11.321684   9.196613  11.361297
Tm  -18.295204  12.336912 -22.503541
Os    0.902735   7.991008  31.242836
Ta  -17.275230 -10.904723   0.572777
Co   33.413942  -0.888384  -2.632242
S    13.792202   1.329022  23.240017
Nb  -27.243272   3.944751 -14.243170
Ho   -2.123484  13.455132  -0.108114
Rn  -18.430930   3.285700   4.642024
Po   16.692572  17.194183   4.933293
Ir  -16.860184  20.704840 -10.094668
Ca   22.302995  -3.941051  -3.638476
B    -6.057618  24.003057  -5.966195
Ar   -1.182140   8.508186  -7.121676
Mg   -3.062764  -0.901648 -15.308817
Eu  -13.708406 -28.063194   6.961123
S   -13.712288 -14.012142 -16.909226
Ti    2.365827  19.756087  -0.421369
Bi  -15.475337  -7.542985 -21.765715
C    -3.137877   2.733594  -9.255937
Cs  -27.043884   0.012979 -12.726663
Ru   23.838159  10.984851 -11.986705
N    -9.295075  14.730215 -11.010604
V   -23.845170 -19.466845   2.798892
As    7.467597 -28.823807  -2.100853
Y    -8.448683   4.132173   3.677116
La   22.692703   8.066873  -1.715431
Ne    7.902673 -22.318526   5.425314
Rh  -11.871317 -15.557762  26.770860
Lu    2.388919   4.732173  29.535956
Ta   18.595360   0.798330   7.738978
Br   -8.036133  14.478620 -22.134101
Os  -21.727079 -12.344810  -7.897339
Sm    8.274721  -5.916257  20.718745
O    -0.359208   9.210868  30.014972
Mo  -17.068737  14.969269  -2.193206
Be   12.601150 -21.970113   5.814377
Ho   26.529230  11.047068   5.628131
Eu   -2.827621 -24.304200 -13.392092
Pd   17.611461  27.800702  -6.002576
Li  -12.068652 -24.505769  17.619693
Rh  -16.072492 -26.170409  -3.327190
Ni    7.494307 -14.088167 -29.009423
Pd   14.958904  26.044273   6.067618
Rh  -20.729457 -20.534965  11.465824
Nb   22.368418  12.234711 -20.025222
Au   25.187508  17.797783 -11.327854
Pb  -22.540610 -11.637152  21.234590
C     0.054025  20.052844  24.786411
Bi  -22.987849  12.926216  -0.693017
Zn   15.018000   4.504448 -18.827059
Tc  -14.213775   5.746238 -20.667059
Rn  -12.185305  30.334735   1.482832
Te   11.736106  -7.875523  29.057103
Rh   -5.422474  18.690173 -11.438876
Ta   15.933234  -3.783040  -7.692268
Nb  -23.318649 -12.079210 -10.198884
Zr    6.844682  -0.652161  32.793541
Co   -8.774998  -4.745456  20.988798
Cu   28.104824  15.083049  -2.980777
F     6.404108  -8.958699   1.345955
Be  -18.817154 -23.850539  -8.383235
La    2.298180 -12.215923  21.085060
P     3.534301  14.983568 -18.708332
Zr    6.608064  19.276059  -7.221422
Mn  -12.250727 -21.590192   0.626967
Cl    8.749713   5.891376  -0.793701
Rb   22.188700 -22.699898   6.554055
Pd   -7.626553  -2.980067  26.975306
Ge   13.234803  -5.965604  12.291270
Rb   19.110682   4.991543 -26.780413
W   -32.947466   2.128728   2.861334
Rh  -20.046158   1.148364   1.230244
Tc  -11.232301 -21.013264 -10.145683
K   -10.982238  28.898953  -3.904085
Be   23.561772  -1.827166   1.565379
Hf    5.649863  -3.574996  14.521672
Hg   17.266184  -9.305825 -10.267601
Cr  -16.021791 -13.353346 -24.138647
Ar  -17.541627 -18.888137  -5.326965
Au    4.435465 -10.486432 -23.833202
Bi   -6.016070  12.803214  -2.061301
Y    -7.540061  -7.200095  11.741734
Kr  -11.341289  -2.115237 -18.692141
Ga   11.806952   8.465500 -28.558786
W     4.888753  -0.681992 -11.133283
Nd    9.449282  26.299001   6.460066
Hf    3.130221  19.320882  24.025051
Tb  -21.062127 -14.066723  -0.644697
Nb    2.418163  26.614688  15.226026
Mg   -8.546770  -4.899609  31.669378
Ti   -5.604943  -6.505776 -28.060220
Ba   22.274511  15.494110  10.177700
Cr   12.553043   6.874427 -10.484346
Al   -5.402583 -23.136457 -19.950713
Re   -5.880044  17.883080  19.083852
Ce    6.963315  14.699133  13.158256
Rh    3.865445  -8.346360  13.117844
Au    0.231164 -17.018429 -15.217827
In    3.326706 -15.455956  22.082155
Pr  -25.135472   1.724667 -13.901002
Gd   24.625582   0.488148   9.616151
Xe  -30.418165   6.520542   1.331707
Si   -9.584768  -4.600658 -27.458408
Pd   24.850703  -5.403017 -14.573574
Cd  -12.024932 -14.917922 -22.275578
Co   17.008194  -8.565602  21.694697
N   -18.838577  -2.499418  -3.089015
Ta   -7.268446  -0.088863 -20.296277
Sm  -27.008599   4.666295 -11.698066
Br  -12.742361   8.015466  21.885266
Y    -3.378779  -5.521777  30.092803
At   -7.012107  10.994650  14.569920
Mo  -15.536763  14.267699 -23.886607
Sm    0.856724 -27.457410  -1.338641
Sc  -13.922017 -15.229442  14.508533
Mn    9.935834 -14.882284  14.763558
Ga    5.757168  -2.798481   0.953354
Ho    9.487454  -2.439612 -16.565300
Pr   -6.653116   9.166865  24.433771
Pd   -2.726005 -27.977907   2.884889
Ce   31.480374   5.193575  -0.510541
O     1.000171  -4.277710   8.851934
Lu   -2.162515  17.582398  -0.318028
Br  -18.782273  22.564736 -10.867157
Rh    1.661616 -26.726642 -20.212422
Ar    7.030024  -4.306263  -6.764338
K    -9.779462  15.636074  -0.798919
Os   15.057019 -14.642122  20.020005
Pd   14.920928 -16.649737  19.502096
I    -7.697568 -27.777345  16.924516
Sc    9.559511  -6.046820 -15.346798
Ta    8.039347  12.271161  25.730537
Si  -32.069086  -5.215565   4.942329
Ba  -29.447339  11.244266  -6.942504
La  -16.363463  -5.825434 -23.273600
Mo   21.681319  21.948075  -3.177049
Be   22.672164  -3.955407  -1.393247
Sm    5.876769 -18.051252 -22.946134
Mo   -6.615688  13.361154 -29.413965
Cd   -7.763767   7.680327 -10.334617
Tm    5.220799  28.694219  10.210733
Ne    1.072207 -21.581358  -4.604755
Ti    0.582154  22.307068  21.070906
Re   18.788564  -4.125678  -3.159446
P    24.272703   5.460752 -21.298990
Bi   16.850755  -7.806811   4.688347
Bi   30.523766   6.471416  -9.912679
Pr  -20.220168   5.364069 -25.533040
Hf   11.431176 -11.841196 -13.094586
Ce   -9.156642  -9.767784   2.647562
Kr  -22.962878  -2.978756 -19.549491
Bi  -23.897056   2.503557 -19.959538
Yb    9.681473  -0.682855   9.397270
He  -22.087978  14.506113  -0.182874
Ne  -11.589431  18.782313   1.279374
Lu   26.903898   6.096305  13.831695
Sm   -0.477253 -20.295333  -6.695357
H    14.658531   3.622840  12.440420
Si  -30.625629  -1.742267  -7.399905
Si  -10.649630   3.620076 -20.603413
Yb  -21.691651  15.557528 -16.140622
Os    1.166525 -10.674058 -13.930028
Cu  -21.236138  17.064227  -0.949608
Cs  -14.727314 -16.667414 -11.654787
Si   22.241594 -17.284572  11.478622
Cl   27.335162 -15.264544   2.198040
Co   -5.375660  16.390953   3.134120
Zn   -4.478674  10.012389   1.991876
Pr  -13.196518   4.696599  18.784144
O    22.104254   9.060554  22.073395
Ca  -12.758788 -17.936794  15.823130
Pd    2.170341  -0.813502 -12.447495
Ce   -3.836540   3.278835  -0.173824
Pr  -21.275584  -2.695356  -2.584396
Eu   21.767628 -12.534144   1.529862
Sb   11.233953 -14.943058  -1.657071
Os   21.407690  -0.207831 -12.964625
Bi  -21.942819  -4.728054  17.055988
Ho   15.105039  -4.521562 -13.779591
F   -18.371927  -5.263990 -10.834468
Gd  -16.777678  24.353083 -10.058315
Zn    6.201321  -5.662038 -28.267856
Pd  -13.735956  -7.194186 -14.282311
Ho   -7.031979  14.227837  14.957253
As   17.636307  17.238311  18.187804
Ho   15.292003 -14.225836 -17.178949
Yb  -17.801118   2.097028  10.294070
Tc   -5.851619   5.745581 -18.295846
Br  -25.104881  -2.407443 -10.048715
C     7.927946   5.124328  28.965695
La   -3.167420  11.701159  28.193333
Pr   -4.017414   2.704488  -8.005461
Zr  -26.362181  -1.305006  14.232418
Pt  -26.218422  16.975060   0.702441
Sm   12.096151  25.771711  -2.099306
Tl   20.131490   8.413038  23.999708
Rh  -22.380467  -1.505133   6.740058
Pd    1.265581  -6.928763 -13.260346
V   -18.217766 -21.984031  -5.965851
Ag   11.369099  19.350077   4.587597
Tl  -14.135891 -23.454147  -1.691489
Zn  -30.166391  -7.817760  -9.325367
V    23.528500   0.467795  -6.986320
Y    28.736496  -8.814614  -2.311733
K    16.382717   7.198664 -22.959770
I    -8.118660   0.626047  -5.947327
Mn    8.272962  25.240919  -8.280093
Bi   15.438324  18.257363  17.405028
Ne    1.591951  -2.149378  21.982954
Gd    1.184670  16.973877  23.722423
Li   -5.095122 -17.639913  20.768968
Tm  -22.760307  11.040302 -19.183178
Rn   12.522746  20.385193   6.014771
Cu   17.638165  -5.458419  -1.250358
Mo   11.336088  -7.315414 -18.309365
Rh   13.240286 -14.967989 -21.135749
C   -21.322988  -2.902314 -12.035082
Cd  -19.310046   9.120853  17.122076
Si    7.676490  -2.348058  -6.776809
Rn   15.101407   6.663518  26.926374
Cu  -10.799244   8.236447  30.594079
Fe   10.881386 -27.656962 -11.488062
Gd  -16.206167   1.137197  -7.492790
Br   14.185460  -1.245416 -16.344091
Sm   13.718604  -2.437575 -30.393269
Sb  -10.118172 -25.066346 -14.332188
Rh   19.190902   8.663880   2.555263
Zr   17.097397   4.918597  -8.981387
Te  -28.505530  -8.053856 -13.647722
Pt  -26.812783 -19.458023  -2.403642
At   -7.490460  15.897772 -12.354598
Hf   -6.391352 -15.898084  11.508447
V     6.322436   7.638460  31.374611
Hg   -1.395866  15.074971 -26.169230
Po   25.244277  21.742426   2.983943
Ba  -10.846123  -3.571314 -17.816840
Cu   13.900380 -13.458015  20.239126
Eu   -3.156448 -32.043210  -2.248187
Rh  -28.885647   9.091773   5.018050
Zr  -11.884315  17.670059 -24.044827
Sm    3.733376   6.544556   3.676542
Ne  -23.860324   0.480054 -22.946511
Ag   -2.985337 -11.504473  -4.125181
Mn  -18.216367 -11.279163  10.481898
Kr  -14.407256  -5.379242 -28.517189
Gd  -15.013714 -13.179304  23.248414
Nd   18.054853 -15.065906   6.635787
P     9.455157   5.741695 -20.463459
Cu   -0.751110  19.301243  18.698336
Fe  -23.516191  -1.765595 -17.719624
Bi   -8.785609 -19.005069 -11.123148
Te   -8.132953  16.184588  16.933841
Nb    1.954613   3.291173  18.866650
Ru   16.157994   1.775328  27.469999
Be  -16.525748  -7.027921 -27.017315
Mo    3.185015 -13.242470  18.734219
Pr   -6.236790 -10.342804  -4.006421
Y   -16.910770 -17.359529  17.884314
Y    29.935478  10.542789   6.981515
Tm   -6.003264 -25.536092  -5.946720
La  -22.803722 -10.850201 -22.226206
Pb   23.978811  -8.492022   8.709327
Cd  -12.275554  15.484698  12.933688
Re  -29.445586  -3.303416  13.178907
Ta   -2.663478 -13.003614   6.420630
I    24.033321  15.623082   4.551230
Al    6.931650  14.046313  28.074413
Kr   15.428429   3.195983  18.691665
He  -17.005886  18.669243  -9.695830
Hf  -22.902236 -14.683086  -3.551573
Kr    2.287507  28.818191 -12.381909
Al  -20.063502  -6.940339   9.010385
Ta   16.779201  -4.611129 -17.356409
Ag    5.198649 -16.373618   5.949153
Bi  -15.090287 -13.916467 -10.782543
In   -8.446664   1.280071  29.721166
Pr  -12.210892   2.032342  -1.772117
He   -3.401691 -11.583971  30.746505
In   20.547107  22.188460 -13.541377
Ce    2.487673  -8.886783 -29.927777
H    15.571228  26.668876   8.529650
Be    0.993834  27.939678  15.599672
F   -13.018699  13.274476 -15.618378
Ag   -7.026458 -21.350281  10.347944
Fe    5.994195 -14.927905  20.596364
Rn   13.966979   1.245797 -26.928892
Sb   -5.207094  18.381187  17.621142
Pm   -6.443975 -15.928138  20.196199
P     3.741695 -10.496404  -5.033453
Fe    4.620857 -17.906551   1.324250
Po   -2.935223 -20.769228  16.643739
Kr   21.225791  14.784434  20.324340
In  -16.496103   3.983729   5.216262
W   -14.605900 -15.823191   9.381320
Sc  -12.599634  10.489186  17.133981
H   -32.776532   2.468024   4.511673
Dy   -7.638873  -0.536724  29.307706
Hf  -15.602937 -15.044835  24.408290
Mn  -31.834610  -1.681573   3.523631
In   -5.953265 -23.779372  13.264615
Mg   26.239441   8.557843  -9.919444
Si   -1.124341  16.784883  20.046164
Hf   -2.350794 -19.778684  20.178511
P   -13.641637 -19.348486  22.371573
F   -26.480850  17.019165   4.850924
Ag    0.991110  25.166828  17.071005
Cu   -6.908187  27.865191 -10.392884
B     8.020045   3.909000  14.755602
Rb    3.897760 -17.345157  16.478119
Cu   26.668002   0.171585  10.089494
Hg   -1.065078  15.443886 -25.006650
Ho   18.112161  -3.718045  20.700177
W    16.980819   7.183016 -28.058055
Co  -24.190382   7.429019  19.199347
Al  -13.879225   1.697488  25.916798
Yb  -22.098639 -11.719187  -5.816633
Lu   -7.507558  20.787755 -14.937728
N     2.117498  18.298592  10.176681
Er  -22.735755  -8.581365 -23.117376
Tb   -2.392818  -1.034022  -6.956611
Nb   -3.367098  11.952788 -17.880462
He  -14.643439 -23.070724   3.026821
Cu    2.198499  22.726169 -12.573422
B   -18.978432   7.243365  25.898279
Ar   13.169556  12.638636 -10.277288
Re  -11.111533   4.591148 -10.053312
Yb  -23.732186   6.942008 -14.746191
Ba   -4.260949 -28.334781   7.168760
B     6.457033 -14.112441  18.744910
B    11.411399   8.949066  12.515803
La   -4.234304  -7.083624 -20.704251
Ti   -3.938329  -3.492850  16.526234
Rh   -9.822045  -3.202668  30.948697
Ar  -25.032590  -7.204111  -8.930179
Zn   -9.842458 -26.775913   3.838136
Ba  -11.518596  17.401496 -25.532337
Nb  -21.526026 -15.066723 -19.688645
Li    3.074669 -19.478584  15.114568
Cr   -2.963736  -7.008457   1.588502
Zn   19.553805  -1.606558  14.721014
Zr    8.838156  15.429002 -14.525613
He    8.202891   3.609655  22.911131
Se    9.941581   0.377770 -13.388367
At    2.986136  -0.558454   7.035624
Te  -26.126551  -1.627508   6.401326
Rn   32.489582  -7.288168  -4.275410
Dy    6.322078 -19.411379  17.411449
Mo   -4.629861 -27.167215   8.762405
Ru   22.774220 -17.395751  13.269681
Ru    9.287656 -13.115729  24.686860
Cl    2.374146   9.965519  12.622131
Mn  -29.101693   3.240618 -13.829883
Ne   17.221367  -5.098620   2.749245
Ta    9.224038   3.467552  27.980107
Tb  -26.593968 -13.359453   1.882086
Au  -15.899375 -20.148851 -11.845335
Ho  -10.200796 -22.804580 -10.261145
Ne   -3.796703  -6.870459  26.934427
Si   -0.533914 -25.748154  15.883198
Ce    1.918036  -4.549918  -1.035316
Eu   -7.569969  -9.378511  -1.508804
Ca  -14.541978  26.109274  -1.664613
Na   21.618653 -20.803983  -0.359505
I   -12.493418 -15.463605  17.805895
Mg   -6.525661  -5.617364  -2.155697
B   -11.585122  20.531171   4.571424
Al   -8.902466  -0.183466  -7.745547
Cs    8.077562  -5.467807  22.624914
Re  -15.866041 -14.313899  14.447286
Rb  -27.718770   2.788042  -6.330607
Nd   17.491940  15.376290  15.207732
Li   23.802678   9.443011  -7.587277
Nd   11.351940 -24.474306   2.033305
Xe    5.937101  21.204552 -14.529636
Sb    9.585836  17.827347   8.715508
Pt    0.732791 -17.624961  -8.225877
O    30.216110  -0.861752   4.376066
Rb   -0.956171   2.040823  22.762264
Mn   14.396595 -14.628753 -21.838624
Ho  -22.141931  -3.712176  -2.524630
Cr   28.608020  -2.935409  -3.106800
Zn    1.543610  15.001282 -21.678589
Xe    5.616714  -7.302071  -0.121105
F   -10.138551  24.090841  19.818294
Os   -0.505192  12.396531 -17.317641
Hg  -25.594744   3.584989 -21.285908
K   -26.016755   4.398374   3.530172
Sm  -12.637314 -22.700367 -16.129891
Er    1.996784 -10.526911 -12.754798
Rh  -11.086967   7.545156  -7.552000
Ca  -13.062148  10.355501  20.628280
Eu    6.356559   1.182224   0.593609
Nd    5.254837   4.268206  27.404559
Ce   28.182100  16.520177  -5.222626
Au   26.560421   5.024123 -11.707675
Te   -6.852332  26.933745  17.485519
Kr    7.279003   5.860063 -30.144868
Fe   -4.756076  14.218017  19.023748
Ag   -4.758099  -8.388886  11.926081
In   11.809386  -7.897723 -27.058491
Po   -5.899469  -6.488831  22.337867
Ar   11.262296  -1.648754  11.247552
Sc  -31.185935  -2.544631   8.060424
Yb    6.341373 -29.947656   3.117050
Nb   -2.844081 -18.626013  10.956627
Ga   11.698144  -5.676471  13.929276
P    20.387902  16.444452 -11.304704
Y   -29.195845  12.276933  -7.746918
Te    6.392630  -1.753154 -27.084289
Cl   -1.061198 -15.714868  21.892233
Nb   -2.003225  -2.979040  -0.442007
Pb    6.469035  11.395131  22.972906
Lu   -0.313928 -10.660157 -15.337717
Se   -3.607505  13.129073  21.027406
Nb   -3.330576 -13.269440 -17.101333
Cu   10.417393  10.041116  27.610587
Cl  -14.942996  11.393773  20.039609
Ir   -0.719649  -3.487768   6.202488
Cd  -16.308750  -1.655254 -11.716830
Ni  -20.475833 -16.052758   2.518471
Po   17.808184   0.662143  -1.248050
Br   -7.244043  30.511145 -11.344499
Zn   23.470480   5.674851  -3.666821
Li   14.432612   8.581129   9.995224
Cs   -0.235875  -5.928766 -19.476698
Al   18.904229 -24.056028  -4.221290
Rb  -23.229512  -7.547622  19.424067
Ni  -17.737716   6.727787  -7.170623
Tb   -2.139463  13.085364  21.867698
Ir    6.277281  25.349794 -20.042545
F    10.541448   7.746142 -11.360061
N    17.814220  23.139952 -16.628889
Ca  -22.298049  -9.544883   8.518979
I   -10.270631 -13.521514  -5.847311
Ce  -28.363202 -10.956726   0.134575
Bi   19.976949   4.464365 -13.581366
I    -1.250700 -17.991220 -27.801709
Y    -7.897401 -15.596749   3.057846
Pt   16.404694 -19.332551 -17.391883
Al  -21.762885  20.284144   9.454053
V    14.904359  21.356810   1.712201
Au    7.377462 -28.050129  -5.532489
Cl   -8.698807 -26.130059  12.699253
Br  -23.115846   8.401685 -18.429930
O   -11.079592  -1.996841 -20.045356
Au    2.954366  27.901639 -10.759378
Pd    1.667497  22.330678 -11.855512
Hf   -4.930790  15.478091  29.024301
Xe    6.958776  21.805976 -19.639900
Xe  -11.498473 -17.341317 -15.360045
Ag    6.423287  12.539769 -12.514700
Ti    9.543924  -7.004097  12.564865
Eu   13.536055  -5.636197  16.407901
Be  -10.546265 -17.278850 -10.503425
Be  -17.531006  23.581205  -2.115176
Dy    9.628643  -3.530952  -6.304831
Ca   11.244417  17.926516  25.693357
Ho   26.292720  -3.932912 -13.235216
Br   22.554817 -16.619190  -3.343613
Hg   15.447203 -25.627149 -12.060374
H     2.440601   1.912425   9.573018
H   -16.314553  19.248977  16.731383
Si   -6.953157 -18.678898  -5.384789
Zn   11.525681 -10.484612 -17.566090
Rh   -4.918808  20.443627 -11.373699
Re    0.965543  19.384993 -25.841168
Pm   16.085474  27.353227   6.255959
Na    5.838130  18.210323  23.199984
Ni    8.061104 -26.543969  13.113087
Ca  -19.391185 -10.936798   4.119322
Ge   11.920188  20.286238  22.936536
Au    7.949983 -10.794099 -20.109801
Mn  -25.952933  16.064996   3.340474
In   -5.163286  28.325047  16.457777
Tb  -27.540961  -0.930624   6.034212
Mn    8.594444  14.052941 -24.648100
Re  -27.994490   6.500771   1.526979
P     8.492181 -31.191159   7.548540
Br   29.410772 -11.104728 -11.347533
Y    -6.128323  -3.534568  -3.792921
Ba    4.754892 -30.452644  -4.968158
Zr    7.048683  20.824676  10.494798
Ca   10.775638  23.625205 -15.580660
Ru   -5.657427  28.048340  -6.765192
K    18.070194  13.392320  -0.391175
Pr  -19.121946 -12.030644   6.723204
Xe  -13.949101   8.524246 -25.714723
F    -8.958667  16.090309  -7.538487
Cd    3.058247  23.707394  14.226963
Ga  -19.216991 -17.231918  16.517484
Cs   -8.549030 -18.981277  15.438515
Xe    1.651259   9.296690 -29.274851
I    -4.132950   8.034871 -23.126492
Sm   -0.226292  32.361032  -0.459914
Cu   23.470109  -2.271277   2.460776
As   26.447103  -3.760136  -7.417781
H     7.974749 -14.594736  -1.728843
Fe    9.225013 -14.309257   6.123863
I    -4.778028 -15.699084   1.287028
Tb   -9.818307  11.893262  -2.168863
Ta   20.834178  18.274780   5.334152
At  -23.234900  -5.552050  15.902114
Mg   -2.301312  14.996303 -25.749630
Ga   14.038374  -5.992984  -5.058211
Cu   -1.290119 -16.476463 -23.219650
Rn  -23.383732  -5.371919 -11.583344
Co   11.911025  -7.515869  11.556889
Dy   11.330005  14.289869 -12.385832
Os  -22.092048  10.561553 -21.613118
Pd    2.579760   0.709243 -26.950401
S    13.680047 -16.294334 -22.340701
Ce   17.700501 -10.697000   9.984282
Cu  -17.630228  19.346951  -7.831667
Nb  -16.703352  -4.223538 -20.442478
Br   19.489225 -10.125304  -9.575771
Hg   -4.616442  11.900411  24.250225
Xe   19.388645  -3.425059 -25.055868
Au    5.606977  12.584423  12.236424
Ta  -31.951341  -7.398672   4.130647
Rb  -22.895165  10.792290  -5.834831
Rh   18.712946  23.682639   6.453195
Sn   14.804357  14.966667 -11.775434
F    19.411665  19.962694  -7.314623
Ca   -1.890372  -7.000638  14.055448
Pd  -23.085273   1.581770   7.423366
Pt   -4.964189  -7.971638   4.104659
Sm  -11.776448   7.386571 -14.108589
Zn   -8.913417  -2.401330 -26.896812
Au   12.515337  26.938129  -8.477365
Rh   10.758195  -2.063795  -9.714316
Pm    2.420309   7.824748 -12.250584
Pm    7.951997  18.548131   8.760711
La  -11.573411  -0.408248   8.062942
Re   14.464416  -1.824027   4.169592
Cu   -9.320624 -23.233497  14.078621
Xe   17.589390   6.684930  22.033093
Pm  -23.362416  19.710554 -10.134185
Pt   -4.963561  -9.815937 -12.321185
Po    3.569647 -15.348898 -21.153949
Rh    2.514675  20.064654  -9.806685
Co  -13.363414   4.879429   8.250333
C    10.339244  25.818394   9.277586
Os    3.009905 -26.626484 -19.138983
Rb  -11.009127   6.446042  21.956092
Po    2.999250   7.855750  30.636849
Hg   -6.986421 -29.706977  -9.014730
Er  -20.817747  -4.915078  24.608140
Sr  -12.526119   7.418610  24.422685
I    -1.580695   0.260661 -20.865193
Ag   -1.018100  14.238581 -15.731719
Tc   15.059825  19.009298  19.107986
Rh    5.621608 -25.413231   5.316132
Hf   12.328845 -13.406165   1.539903
Zr    8.954316   3.551993   9.817046
Br  -29.338957   2.907193   8.392614
Zn   32.173933  -0.472263  -4.184613
In    1.951043  -7.893819 -14.084158
Tm    7.144255  12.827830  27.110807
Be  -13.634350   9.428372 -21.213392
Pr   -9.862508 -17.897969  -7.011007
Na   19.384613 -20.354769 -16.329669
Ce   -5.835923 -24.180932 -10.857477
La    8.966457  -0.839713 -15.796123
Bi   16.992385 -19.735681 -21.129199
Ge  -15.943316   7.973722  -8.401524
Tc   21.247094  -1.373842 -13.475013
Pb   18.539174 -13.182127 -12.935364
Ag   -8.025624   8.894484   8.646618
Po    1.458069  21.192997   5.352931
Sm   -6.465104   8.671016  29.173870
Pr   -2.426190  19.877713  13.445904
B     4.593613 -15.919511 -24.405572
V    12.763121 -24.818513  -6.076016
Cu   -5.365164 -21.807248  -1.627713
Nd    8.197749   8.037944  -1.300170
Pr  -14.305917  19.413916   1.604637
Eu   20.716243  12.409608  10.826117
Ir   -7.323668 -17.054395 -22.305844
Ne  -13.803264  11.624398 -17.449936
Mg  -25.900773  17.293122  -3.338432
Gd  -13.651026   0.645553  24.205788
Nd    1.309556  -3.132111 -11.720910
Pm   -3.500642  23.203320   3.425892
Eu  -15.142392  -2.982261  -5.822562
Ir  -23.105040  11.036360  14.143153
N     9.146328  -3.361285  16.500998
Rn  -31.772104   4.361447   1.738894
Nd   14.866367  23.067093   1.514704
Os  -17.625961  -5.646433  -1.980161
N    -5.372583 -29.633977   2.604922
Pr   12.776505   4.030307   5.325263
Mn    3.869890   6.862541 -16.429945
Rb   -0.589767  23.412390   0.020520
Rn    5.626177 -19.942437  20.277172
Re   16.682644 -24.582088   1.987103
Pd  -18.421895  -0.805321   7.443694
Sn   24.755114  17.382018  -0.735937
Tl  -30.715907  -0.892993   8.205474
Sb  -14.116057   2.528688  -6.134409
Gd  -24.791737   9.071595  10.317522
Cs   12.773967  24.607884  10.400542
Cu   14.093374  -6.898956  -2.232522
Mg  -23.783278 -15.951052  -9.113776
Mo   11.086246  11.178168  21.201661
Hg  -24.673336  20.643637   5.979142
Ne  -14.139081 -17.820258   0.929784
Au  -18.417741  13.312028  -1.428498
Ag  -19.377255 -16.702518 -15.654306
Ni   29.501125   3.235060   6.108929
Nb   26.292713  -6.298054  -9.424596
I     7.723605  -7.870741  28.938966
Pd   23.192298  18.643923   6.873356
Nb   -3.952599 -20.430191 -17.013481
He    1.638242   4.492348 -29.770262
Rh   12.480907  17.663982 -25.598317
Sr  -20.115029   7.036483  -6.898228
Dy  -14.896536 -12.002848  20.901560
Ti   -8.256809  16.650867   0.709783
Ag  -13.432643 -30.136848   1.232069
Eu   -1.484150  15.363111  26.554918
Ta  -29.966511   8.099267   1.414432
Yb   -6.888545 -18.737300   9.446187
Ni   -2.986906  25.559328 -19.598974
F    10.890129   3.761619   5.566209
Ho    6.469426 -13.964944 -12.886078
Zr   15.025125 -10.846569  -8.652291
Co   11.884873  31.411672   0.432119
B    -1.619962  10.437383   0.471623
Pb  -17.350155  -2.999224   0.933708
Sr  -18.386597 -11.951556 -19.489606
Ru   11.644298   6.403871  -2.907749
Bi  -12.786936 -14.445223 -17.028646
Al   17.578982 -12.567109   3.361950
Mg   14.612621  11.447553  -0.327036
Zr   25.699756  -1.798869   7.942832
Cs   -1.636839   4.276470   4.611438
Fe   13.420505  10.763337 -10.246611
Lu   19.443487  -3.937407  22.752813
Bi   -4.762489 -15.539491   9.389380
Ru   13.304948  26.671608  12.055344
Bi    2.935675  13.388038  -0.339099
Sr   14.331821  16.089020  -0.729227
Au   -2.454569   6.223343   3.270861
Br  -17.811641  -1.574205 -26.847417
Cl    6.790104  -3.566059  -1.823350
Hg    4.460949  15.533241 -17.441701
He   12.986507   7.886825  17.016057
Al    4.309539   5.633014   8.188053
W     2.420865  18.570489   5.209556
Sc   -0.092528 -11.404819 -17.055985
Re   12.799132 -16.297892  -3.578326
Ba  -12.520944  26.590829  15.554815
Pb   18.634349 -16.431124  21.375718
Ru  -22.930063   7.869644 -10.056462
Ga   25.522548   0.177749  10.988379
Dy    0.378940 -24.427413  12.198526
Gd   10.669681  -1.589315 -22.517840
Ce   24.438549   4.181843  16.832519
F     3.657493  -3.279645 -21.853476
Dy   -6.732256 -24.537586   0.102172
Ru    2.381141  -8.636269 -17.135761
H    -1.031428   1.509812   8.440542
Be   27.979712 -12.850031  -7.062219
Ru  -17.875692 -13.245298   7.380326
Be   -2.355757  21.362143  -4.314599
Pd   27.678803 -13.224083   5.019064
Ge   -9.981951  27.238263   2.615302
I    24.235829 -17.653280  -9.441315
Ru    1.745758 -29.092910 -10.419422
Gd   -3.495642  24.674191  22.108769
As   31.554925   1.841723   0.255625
Hg  -21.736998   0.326421  -1.156629
F    15.546749  -9.898286  -7.531234
O     1.855580  -1.585664  33.397048
Nb   29.372609   4.072104  -5.662918
Dy    6.774419  23.500551   2.350337
Sr   26.337656   3.937309  19.474876
Ni   20.850764  -0.272977 -14.362135
N     3.067740   4.631571  27.058097
Ni   -1.076881 -14.715679 -22.922510
Ti  -23.649105  10.471318 -12.870043
Cd   -8.936456  26.280898   7.626387
In  -16.290950  13.780155  10.309887
Si  -12.119702  -0.892390  -0.138728
Ga   12.802588  -1.298729  14.673319
Sm    3.737846   6.767956  16.286235
At  -22.003209  -3.717148 -13.316913
Pm   10.959103  -5.262385   4.642784
Tm    5.565279  -3.166674  11.400296
B     4.284728   4.185082  27.918786
Ti  -12.024236  -9.911843  -6.913234
Mo   16.799705 -21.545109   5.678309
V   -14.118937  -3.081406   1.935152
Fe    6.276101  31.160443   3.395332
Tm    7.296849  16.157564   2.012390
Gd   20.950906 -24.236103  -3.829458
Kr  -25.705704  -8.765648   0.764032
N   -26.180342   7.323621 -14.600397
Zn  -21.951571  17.603489 -15.876068
As   -1.889885  -9.924578 -19.166121
Cr    8.815617   5.078762  -1.458052
Cd    3.757468  -0.728129  32.686304
Rn   13.874897  -3.936405  13.273913
P    21.441810   2.638778 -14.655960
Sr   12.140520  -9.442212 -23.035208
Tl    9.558847 -10.008986  -5.529312
Pd   -9.529564  16.573191  24.157815
Dy  -26.215572 -13.397578 -12.966538
Cr  -24.856208   7.740271   3.674939
Sb   -7.712334  18.248854   8.465601
In  -13.490426  14.203422  14.674087
Er    6.759226 -28.616523  13.081428
Fe   23.784590  -4.907747   0.650192
I     0.664381   0.930493  13.935117
Ta    7.511345 -17.650346  -5.188612
Br   -5.833164 -26.544458  -6.090298
Bi  -17.562095  15.442218  11.243459
Ce  -15.453642 -10.451595  -3.182630
P   -21.699149   9.141280   1.963960
Tm   19.114700 -25.735241  -1.890330
La   22.009573   4.565418   5.245956
Cd  -23.349813 -11.343423  -0.747810
At   -0.641958   6.816241   6.509181
F     8.160906  -3.299389  -4.869579
S   -26.179759   2.318003  19.802791
Zn   -6.294559  25.262401  13.021291
Tm   19.129950  12.264355   9.147199
Ca   -7.929694   5.664197 -11.829606
Ho  -14.527657  -5.591556  -7.889041
Rn   -7.359296  -5.059821   1.414095
Rn   11.716580 -23.931864 -12.354742
Cs  -13.103637   3.589449   8.231319
Mn   15.375089  19.300033   0.949544
Na    4.680485 -19.223349 -17.992759
S    -7.464181  15.467351 -24.137592
Pb  -22.738056   0.495777   9.000250
S   -22.417482 -12.473227   1.199596
In   22.382173  12.715481  -9.334450
Pr   11.866374  -8.485360 -27.839073
Yb   21.476020 -18.214400  -3.123256
Be   -8.560980  27.149283 -12.177228
B    15.853241  21.255634  -9.031846
Dy   -3.114947 -20.604780 -18.520027
Ne   22.276374   5.139595  22.905867
Li   22.633463 -16.087006 -13.449527
Pm   -7.983065  18.169086  15.563487
Zn   19.761498   8.509471  13.777263
Os   -5.697579   2.688539 -21.325330
Nd  -10.815079   1.337115 -27.163646
Pt  -14.419930  -5.990858  29.145405
Nb    9.980986 -10.339711   9.049793
Se  -14.704506 -20.375674  -4.793636
Tc    1.464432   1.568206 -10.577775
Cu  -11.725837  20.532163  -0.653737
Pm   -3.628125  -1.135335  -1.888081
Tc  -13.041886   0.125339  28.756472
Se   25.873461  10.071306  -5.647639
Y    -8.658730 -12.592436 -14.672250
Re   -7.818966  26.863788  15.535354
O     2.520488  20.008520  13.612967
Tl  -33.461209   1.852856  -2.662776
I   -22.707365  -7.423526  -0.114602
Se  -10.153818  24.536447 -20.641948
Bi   10.256424  -0.446057 -27.471192
Na  -25.806693 -14.759066  11.437066
Kr    1.996246   3.894539  22.331995
At  -25.247461   4.602161  -9.329288
F   -10.160565  30.793374   3.018777
Ru    0.411816   5.217749  29.089800
Zn   10.257810 -27.781602   5.773904
Al   15.754804 -10.573162  19.774878
Bi  -13.561179  14.573125  -8.750668
Nd    8.654675 -25.856839  -6.214257
Pt    4.627717  10.123137  20.069162
W    15.426973 -18.350702   9.483975
La    8.312836   6.695955   1.381428
Cr   29.816094  -1.308449   9.048804
Mg   -1.007363   0.893834 -18.916498
Pd   18.857907 -14.362225 -10.456340
F   -13.087681  10.682429  15.376833
Sr  -11.326464  18.346677 -22.045578
Ge   17.212328  -7.560256 -23.341284
Sn  -18.234349  -0.082231 -25.620811
Zr   25.122249   8.366282   9.770062
Dy    0.647198 -31.686488  -2.822149
Pd   -8.341860 -15.250395  14.970969
Cl   13.149529  17.963102  12.330423
La  -12.991815   6.958184  -9.069741
Fe   14.162724  10.026986  -3.035895
Fe  -18.056097   4.078109 -13.694499
Fe   26.305138 -16.879349  -7.725967
As   -8.611843 -12.033073 -27.452190
Al    5.189840  29.110315   4.645352
Si   -8.948405  -2.829345  17.132891
La    1.516773   2.923925  26.444608
Tb   19.055698  22.632044  -3.749140
Po  -17.246993  -7.857537  13.640771
Tb   27.880376 -10.438381   3.242460
Ni    8.809372 -28.803581  11.463114
H     8.453402   0.384338 -10.321232
Er   20.832948  17.207339  -5.260871
Pr  -30.752060   8.524041  -2.836353
Al    7.405454   6.278755  29.148177
Yb   12.911987 -17.087570   3.882386
Ag   -1.512375   8.739027 -17.707390
Cr    2.586992  12.071993  28.090888
Cr    0.776245 -17.491593   7.664826
Eu   21.358895   3.166593  20.250449
Cu   25.661061   0.182188  -7.517542
Sr  -14.754817  -4.365930   3.395613
P   -15.727111  -0.887461  17.328698
Kr  -11.685740 -11.697174   9.705108
Mo  -30.233127  -5.542473  -8.761043
Zr    6.127075  -4.921392 -16.369206
Tc    5.181636   8.062673 -19.060670
Tc   26.116894   2.051717   1.265832
Tb  -15.656791  13.261216  -1.881888
Be  -17.294378  28.766386  -1.438026
Pb  -15.223909  -2.893199  18.843570
Ag   -5.022710  -4.497586 -10.313286
Ne  -24.281736  11.061429  -6.761634
In  -13.426157  17.116858 -19.781871
Fe  -14.684687  -7.453706  28.998800
He   27.415273   3.676836   0.917515
Rh   -0.838583 -24.625138 -12.694153
W    -0.441689   8.535792 -28.434977
Se   -9.496061  17.067347 -12.018437
Re   -9.725921  31.171381   8.241548
Br  -15.964026  10.077015  17.899725
Al    3.070827  -0.896962 -32.291689
C    15.742052 -20.189572 -15.720125
Ce    2.303227  -4.274126 -26.740163
Cd  -14.110335  11.320000  19.112440
Lu   12.595210  -8.971630  -6.149933
Ti   10.233125 -13.555344  19.236532
I     3.257137   4.373102  11.325206
Ta   -5.100747 -11.146682 -10.157095
Sm    5.570946 -19.410822  25.991840
Au  -13.589200  -0.396481 -30.416086
Cu   15.393945 -17.139656  13.236808
Au    1.776836 -11.713737   7.431784
Ar  -28.436118  12.014322   8.193743
Na   -8.284703  -6.663682   9.970158
Be   13.542704  -4.776254  -5.022116
Se  -10.655696  14.810612  14.457152
Ni    3.671842  15.445003  11.114004
At   16.311479   2.360280  -6.464711
Ta   10.095612  20.942051  -6.790129
Gd   20.475458 -11.280245  23.375618
B    30.388474   4.515782 -10.622760
Be   10.611665   5.499050 -28.455572
Au  -13.926134   0.045659  28.985255
Pd  -20.211889  -1.420103  24.474650
Co  -21.484388  20.042737  -0.215533
Ni   24.693152   6.200695  10.585590
Zr    7.424896   4.776158  31.129565
Au   15.601234   5.779703 -26.048698
Ho    9.619156  -1.831376 -14.427202
Eu  -19.414765 -16.389267   3.288904
Mn    1.707453 -26.383857 -12.041712
Lu   18.735630  15.032038  -5.815871
He    3.278569 -31.189865  -8.551131
Mg  -18.869998  10.388676   9.598231
Tb   -0.786347   8.390099   3.081590
S     8.143109 -27.620013   1.984452
Pm   11.445856 -31.166073  -0.758648
F    22.989048  -7.733458 -14.177363
Kr   -0.758628  20.846643 -18.525900
Se   -9.408903  -0.803538  15.540382
Xe  -27.400391  -2.247346  -6.646222
K   -10.353012  -4.968893  16.661658
Ho  -24.188887  17.443293  -4.507410
Kr  -12.174726   4.685512  10.283118
Xe   11.431659   8.339317   3.763327
Ce   16.062189  -5.647563  -1.232371
Sr   -1.165373   6.181963  -4.749200
Nd  -11.622815  16.130208 -13.396940
Re    4.697236   0.537318  -1.611767
Pr   -0.890574 -27.214163  18.602761
Pd   -7.357478   2.266055  17.909241
Os   17.041481 -10.057625  -7.793417
Tc  -11.670937 -29.675833  -2.341458
S     5.169830 -24.700002   6.561870
Kr   24.280606   5.699132   7.660452
Mn   -3.460898  12.861194 -27.087540
He    5.653442  31.479177   8.182552
S    -1.107973  21.696398  -7.959707
Te   20.635577   3.755493 -15.892971
As   29.021945  -9.477782  -6.546340
Hg   -8.629071   4.121771 -13.805083
Fe   12.268376 -20.712339   9.588679
Be   -4.611805 -15.645772 -13.399371
Au  -14.874257  -7.975238 -11.964611
Eu   -3.718527   5.014497 -15.988013
Pr  -22.347852   6.157997 -15.078903
Rh    3.153331  -5.504993 -11.134018
Ne   -2.794732 -13.003397   2.791918
Si  -25.269074  -7.502038 -17.606813
La   -1.029526  22.272634  21.317483
N    -9.067070 -16.503545  20.565867
He   16.305843   0.067139  15.341644
Sm  -21.237971   4.948420  20.238988
At   17.052400 -11.979358   2.756195
Pr   12.675326   1.577260   4.020742
Ga   -2.057084 -20.092708  -0.886979
Cd   -1.745568 -20.527069  15.811264
Yb   -2.862574  29.023358  -5.694367
Zr   -5.452414 -18.822515  26.250295
Os  -13.090436  -5.689147   2.665450
Se   -9.035154  16.487703   9.583619
Mo  -18.630711  -7.328946  -3.588182
Hg  -12.089336  24.306225  -9.299480
Dy  -27.536869 -16.187911  -4.189567
Nb   -8.682895 -11.559985 -16.227927
Nd    0.335666   5.417660 -10.048314
Tm  -20.808491 -16.380366  10.795519
P    -2.595787 -20.295209  -4.151795
Xe   20.322507 -15.803029  -8.631706
Dy    1.618434 -14.430544  -9.551717
Cu   16.110002  12.813497  25.405975
Pr  -24.750466   9.970356  -7.376746
He   -9.643114 -29.580331   0.640913
Po   10.790174  12.066886  13.446178
Gd   -3.745737  -7.884601  14.326387
Hg    3.476380   4.735794 -17.819771
Rh  -14.688022   6.832623 -26.669798
Pd   -6.250931   5.837184 -23.904211
Sc    8.802882 -30.303245   9.956320
H    11.390973  -1.847646  -5.119592
Sm  -26.579415   4.177843   5.820972
Ca    4.487019  -1.158829  31.870688
Sn  -13.776801  -3.109038 -18.734531
Be    1.619592 -30.939766   8.531075
In  -11.511658 -19.620239 -16.720446
Pm  -26.517703  10.213062   9.904917
Pd   -1.765811  14.463550   4.392871
Nd   -4.919781 -25.840758   1.316931
Ge    1.404848 -14.749875  -5.515518
Sc   -7.283141  16.930439  -3.499900
Fe   13.922785   9.998423  13.375605
Ag   27.588908  -6.697502  12.222460
Co  -16.309785 -19.350804   2.796157
Po   18.958891  -1.710658 -17.372850
Rn   17.703962 -23.846210 -12.148826
Cu   -0.873678 -21.187431 -15.219643
Re   10.850596 -22.922564   3.864288
Cd   -7.266446  11.475322 -21.511009
Rh  -14.466342  -3.505105   7.015730
K     5.683193  -3.764753  -5.708847
Pt  -21.490494 -15.819429  -9.808028
In  -10.694760 -13.879281 -12.212599
Rh    3.660852  24.587106  -0.076375
Pd   13.218898 -12.169674 -11.156207
H   -27.340920  10.280909  -1.047037
V    13.484299  16.551242   7.065420
Fe    6.630593 -10.560444  30.127780
Sn   26.096126  -4.521901  -5.434620
P    -1.214264  -7.721073  -0.527509
Tc  -14.598578  17.254364  -3.655261
Eu    1.328169 -12.908390  29.670838
O    16.246160   7.033776  -0.755199
Er    0.449753  -3.404202  18.075405
Ge   23.373862  -5.210025 -21.981406
Sm   -0.684622  -1.368728   3.919669
Ta  -24.129775   7.584181   4.409961
Ni    7.053262   1.013952 -32.345960
Er   -5.863019 -16.909339  17.662666
Rn  -25.814565  -0.715754 -11.753138
Gd   11.036803  -6.621963  24.940340
V     3.923960  -6.724480  21.948480
I     3.017867  18.179397  11.548583
I   -15.439977   1.609930  27.691186
Mn  -11.334831  24.876162 -17.911012
At    7.483024   1.605533  17.544019
Hg   -4.541768  17.902706 -17.777275
Ge  -22.566895  -8.147410  16.973336
Cd  -12.619043  24.433953  -7.880387
Rn  -22.769791  17.798905   7.977231
Pr   -4.006598  -4.801324 -26.227950
Ga   -3.479111   6.327538 -30.922843
W   -24.374562 -18.286660  10.381386
O   -26.855786  -3.460930  -3.234258
Ho  -18.836671  23.590188   6.767449
H   -20.949262 -17.911763 -10.879550
Tc    1.436913 -20.181602 -17.469212
Pd   15.904389 -14.460333  25.168239
Rb   -5.577007 -22.843826  -2.904540
Fe  -25.692381 -15.574058 -11.590048
Nb   -4.841249  10.489325  12.740791
N     9.474319  16.503136 -13.936050
N    -2.431081  16.155278  -7.630727
Sc   27.799816  -6.678656 -13.325283
Mg   15.058528  -3.977832  26.736160
Nb   14.356325 -12.778384  17.762689
Rh  -14.861767  28.196520  -2.099122
Ag   -3.199434  13.732471  13.498717
Zr  -16.820113   5.819591   7.052997
Ag  -14.355888  -5.373392 -20.188796
Ir  -12.280838  11.928689  -3.734900
Hg  -18.951210  14.820951 -12.587395
Be  -31.159168  -1.421335  12.453746
Rh   28.831397   8.741350   0.182049
Co   -1.328445  10.388497  29.141059
Zr   -4.670941 -18.831318  -3.472781
Ce  -10.308605 -14.292874 -21.077886
Xe    2.859462 -17.476183  18.313517
O    23.594496   0.407808  19.432655
N    21.545284 -11.476992  15.210974
O   -13.736150 -17.424245  -4.131090
Kr   19.119042  18.359139 -19.398939
Ca    7.057484 -24.686555 -20.769628
Ge  -28.965243   6.592542   0.711342
Ga  -22.770510 -15.944958  14.072435
Os   12.512149   5.250369  30.574557
K    23.018160  12.303403  -2.326487
Ba    2.573578  -1.995011  12.299001
Fe  -10.742681 -27.148445  14.770019
Tb   11.637876   8.408928 -13.027446
Ga   -8.206824 -30.656580  -7.656161
Ta    1.862489 -29.941498  -0.993042
Ne   14.846843 -17.455148   8.801330
C    14.478684   4.187082  27.426659
Mn  -16.027502  12.007350   5.391585
Ni    4.308976   2.513663 -30.238141
Br   19.685553  -6.002686   3.871727
Ir   24.189016  -3.225857 -22.139856
Tb   -0.032253  -4.067062 -28.494648
Yb    5.306991 -28.582223  11.707635
Mn   27.322590   1.475365 -19.125565
Si    3.935811   1.825351  28.237328
Lu   22.364095   9.105499 -18.335264
Gd   -8.270446  20.434499  -4.486277
Rh    7.902290 -27.893685 -13.903907
Re   21.375757  11.422781   7.597540
V   -17.230323   1.546740  20.275074
Ta   17.111214  14.264649  23.835983
Na   15.056280  20.848438  -1.933151
Nd    1.928754  31.663926   0.766139
Dy   22.665300   9.496399   9.007607
Mn   -4.905861   8.146186 -18.737894
V   -10.460228  19.918877  15.612896
Ga   28.087277  14.123950  -1.565721
I    11.703122 -21.493459  11.313454
Yb  -21.709102  19.044180  11.172565
Tm  -11.857012 -13.300836  23.092516
Dy   -9.503912  -6.624129   7.539552
Br   19.414811 -13.608306  11.197181
La  -12.133710 -25.866637   5.209052
Tl    8.969146   6.826569  18.408114
B    -6.611981 -18.783538 -22.625718
Cr   14.701693   4.328844   4.979186
Sn   13.443647  13.908352  -9.448805
Eu  -20.833564  19.022980 -11.603002
Te  -13.421479 -19.009926  23.890053
I    18.434230 -18.922692  11.064638
Ag  -23.304592  12.741063 -10.027184
Ca    0.169497 -13.329088  14.758726
H   -25.429671   2.933174 -19.959319
Be   12.181286  23.005986  -2.404561
Ar   12.655748  11.324548  -5.616917
He    5.036878 -15.512454 -10.427344
Nb  -10.895302 -13.645846  28.407982
At   -6.203067   4.696973  12.135478
Re    7.525468 -19.123403 -22.845855
Sr  -25.642577   0.589829  14.476145
Sn   15.055943  10.922974 -13.555798
Sr    6.446242  13.751816  13.436590
H    -6.498250  13.375973 -12.915548
Tm   13.576822 -11.098228 -17.889270
Na    2.512884  28.159930  -7.042993
Cu    5.338457   9.226779  29.782688
Ni   -1.282977   0.217864 -11.524754
Hf    2.669734   0.068318  25.633460
Na    1.563021  19.785278  10.420599
Pt   20.334977  -8.069895 -23.418948
S     6.113946  10.332517 -11.095759
Mo    9.081222   3.113768  -0.968017
Lu  -23.269428  -9.683150  21.944176
Ru   -5.367436   6.889135  12.181366
Ge  -26.424025   6.385563   8.587472
Sc   14.252544  23.047239   4.600533
Rh    8.576885 -17.200001  14.609225
Eu   23.634574  -5.662179 -11.256759
Sm    0.177581  11.160650  -2.143396
Fe   10.148378  -1.424255  18.946833
Yb   -7.713889 -15.064730  17.879332
Ag   12.628421  21.752847   3.753619
K     0.857455  26.063272  11.055561
Dy    9.535056  -2.351275 -26.406746
Rb  -26.056020  -7.002225  -4.188790
Br   -3.754877  27.844585  -7.544273
Cu  -13.507283 -26.280522   6.359592
Tl  -10.837853 -13.258869 -10.785736
Pt   11.906969  25.235314  11.328653
Ne   15.207225  19.845380 -16.703969
Sb    2.397717  29.132561   3.273859
Fe   -7.518036   7.902250 -20.677455
Kr  -28.555516   8.886414  -4.451662
Al  -17.507825  19.432196  10.000504
Er  -13.662924 -17.416200   2.576388
N     2.468990  31.103256   9.650059
Tc   -7.138937  17.574195   2.663262
Bi    4.021411 -23.922328   5.379217
Ti   -5.992275   5.629061  21.940691
I   -13.223629  10.008797 -10.137983
Be    4.189714  28.925741  16.257450
Ta  -12.503302 -27.791853  11.825986
Tc   29.678311   7.564828  -7.138845
Gd   26.322605 -18.649884   2.552530
V   -10.249185   0.092116  31.885848
Cd  -14.872870  -1.403941  17.602697
Sm   16.215424  10.920815 -10.433897
Fe  -19.575889 -16.948215   2.654681
Gd   17.941797   8.769489 -17.812624
Y   -20.217485  14.017275  -1.130977
Se   22.838350  12.186126   1.656229
Ar    0.854238 -10.878758  13.893419
Pm  -12.897337   5.027843  13.628931
He  -16.900559  20.463753   5.276746
Be   -2.019208   5.773385   7.747861
Nb  -22.464726  13.974026  17.985847
Y     7.983028  -8.566839  20.099340
Hg   15.080205  -4.788131 -28.813282
Ni   -9.668863  25.230837   3.093017
Cd   -6.016918   2.239025  25.589389
Sn  -31.213291   2.805215   1.246432
Xe   -4.694882   7.012127   4.920101
P    11.997255  -0.008453   5.780014
Tb   -1.830001  -6.476972 -11.921028
Rb   22.968014   6.240393  -2.830317
Kr   15.132583 -12.135225  -8.200256
Cd  -11.818371  -1.494246 -26.083001
B   -15.965045  20.052785   1.583976
Dy  -10.061434  13.686401 -15.251680
Yb   26.047796  10.325688  -2.823166
Si  -21.206941   1.411227 -25.720926
Rn  -13.306278   3.782437 -30.072481
W    -2.964710   8.409412  -5.272922
Tc   -5.052749 -25.871151 -19.581555
Tm   18.345082  -3.453023 -11.232153
B    16.235696  14.945014 -17.150211
Cr   15.643293  13.939946  -2.878950
Ne    6.380489  10.752331  20.615537
Rn   22.237532   3.826482  -4.301014
Er   -9.687209 -30.140756   5.399090
Nd   31.373576  12.062541   2.001906
Ni    4.629230   4.477497 -11.720184
Ne   16.094832  27.291024  -6.716691
Tl   11.829257   5.453086  15.782386
Tm    5.124405 -15.601773  -8.391042
Te   21.315599 -23.210935  -6.328178
H    -7.392871 -11.782321  -4.437008
Sm    6.911659 -12.705017  25.973094
Cu   -8.155774 -17.747314 -26.770531
Mg   13.836065   6.347434  -6.327548
Tc  -23.433505  19.589955   6.805091
Rn   15.591082 -11.184498  20.590839
I     9.143697   8.427786  10.140809
Mg    8.074542  25.653874  -9.875802
Yb    7.086858   8.514036  -0.036823
Zn   14.828444   4.602435 -16.259503
K     4.313890  30.837894  10.270855
Nb   12.290576  -8.325995 -20.610858
O    -1.907651 -21.390198 -25.772598
Pr  -10.725998  14.457399  -7.677878
Po   -6.074590  -4.085020  25.559920
I    11.376482 -22.551063  -8.472660
Sc    1.935188   8.339878 -13.253434
Ir    5.051664  -6.305498 -20.238855
O    -7.231109  -8.179233 -26.088043
Ta    8.862373 -12.252809  11.928237
Tl    5.871060 -22.105095  -6.129485
Ba   10.317388  12.990096   1.164652
Sc  -29.858306  -9.216650   1.343287
He    0.950833 -13.060412   2.006459
Er  -28.324110   4.353068  -1.946838
Po   -8.468158   7.863704  12.109909
Hf    9.851155   9.363716  -3.513302
C    17.943771  27.364683   5.556096
V   -11.893834  25.599206   6.652010
Kr   17.724025 -16.563730  20.001018
Ag   -6.587643  17.124790  24.611559
N   -13.912543  23.874559  13.368590
He   -5.261055 -17.144672  -2.644301
Sc    3.934345  15.044263  -5.640411
I    18.241933  23.607469   1.742917
Na   24.964845  10.719430  12.684894
Gd    6.520483  16.087743  -2.069547
Ge   -7.066288  21.631902  10.619879
Hg    1.414065  23.030854   5.622733
Fe    7.724785  13.354096   8.888324
Nb    9.172826  -6.980837  -8.742785
Fe   20.813646  10.211555  11.908364
Al  -11.821968 -15.165690  -2.439334
Pt   -0.060842  -9.381610  -3.416312
Rn    4.277529 -10.772864 -27.809348
Ge  -29.884278  13.831143  -1.187250
N     6.254619  -9.561304  20.193799
Y     3.215037  -8.761916 -16.962877
Al    1.776200  14.347981   3.341888
Dy   -8.969311   6.693087  28.534458
Eu    7.039336  21.123219   2.671973
P   -24.046456   0.243995   6.694385
Ag  -16.144991  -7.172992 -24.584838
Bi   12.285761 -10.903660 -18.199127
Ho  -25.146922  -5.330566  -7.987886
Nb  -23.271414  13.190052  12.384808
Se    9.698932  28.270343  -5.872347
Be  -14.851469   1.117683 -12.589097
Sr   11.833618 -27.183073 -15.102576
Cs   16.136483 -21.692202 -17.707399
Pd    8.084479  24.157689  -5.877539
Pd   -6.040558   1.565307  -4.301695
S    22.373208   5.153861  20.376024
Bi   -9.810743  19.172884  -0.876853
Se   -0.105909  -2.740645  12.804000
Cl    8.218160   1.403009  23.327992
He   15.260687  -2.125708  26.370254
V    14.700948   3.944101 -11.772910
Si  -11.940102   0.931755  16.234637
Si   -1.381539  13.441259 -10.207859
Cl    1.258789  17.304444 -13.934203
Pb  -24.725522  -6.572155 -10.642659
Os   -5.733071   7.739041  -8.869114
Au   -2.192218   3.198611   0.568159
Mn    3.163135   0.132335 -29.103994
Cs   11.212113 -30.238540   3.948276
Nb   -9.495348   5.020094  -8.028365
Mg   -1.362721 -14.721682  12.681932
F     7.585941 -25.890047  -8.301127
Pt   28.435128  13.088087   9.480108
Tl    5.986061   3.887743  20.177981
Ag    2.790053  14.402675 -18.015077
H     9.878177 -29.764511  -1.386329
Mo   -8.420220  -8.968439 -18.457310
Al  -17.505095 -24.133843   6.608105
Cl   19.426947 -11.809124  -4.298787
V   -11.138926  22.829674 -14.325007
Sm   -4.163156  20.196426 -23.285488
Pb   20.262902  -1.289165   5.482915
Zr  -18.765791  -1.196808   8.170748
Kr   25.372519   7.299424   7.868202
N   -21.509870  19.081465 -13.446825
Sn   -7.444656 -10.992350   5.242399
I    13.375933 -20.545096   2.288323
V   -27.995644  12.068812  -0.632690
Ru  -13.835693 -21.303809  -1.106071
In   -1.301952  19.550709  26.283755
W    14.385177   5.522064   9.564820
Sc  -10.253901 -12.520506 -17.732343
Ni   25.638341   0.365367 -13.136929
Al    5.847290  16.529927 -27.966229
Ne   18.285133   4.394577  -5.045736
Mn   -5.987517  -8.575851 -17.005957
Pt  -29.193141  10.929868  -0.763310
La    7.658904  14.700457 -15.299695
Cd  -22.693606  -2.047907  -4.474251
Nb   17.749614  12.312442 -22.904797
W    25.711990  -3.110799   3.614496
Ta  -29.251472   0.225776 -12.701385
Ta   -2.176068  -8.027101 -20.809156
Li   -3.211922   9.458044  -9.921475
Co  -26.381587  12.167033  12.061916
Hf   -1.575624 -13.256964   5.399392
Au   15.295619 -18.115082  12.126548
Cs   -5.931702 -15.600600 -18.305936
Eu    5.884316  -3.366700  -2.099400
Tm   14.876431 -16.697338   1.014593
Rn   10.509714  -0.391911  20.362596
Zn   -2.684037   0.453204  24.728129
Tm   16.773975   1.263598 -17.012660
Cu   -2.217959 -29.041053   0.519802
K   -16.015161 -25.206036  -2.711153
Hg    1.391242  -0.569105 -26.610264
I     0.197552  18.214094  16.304907
Br   -1.853111   4.620583  17.706953
He   11.365770  11.068182 -11.358382
Hg   14.275181  17.894930 -21.660743
Yb  -20.568258   7.955287   0.082243
Ta    3.210847   4.879589  19.895717
Ca    0.426429 -28.398941  17.803097
Cd  -30.124507   7.513729  -7.135441
Ag   13.619569  20.498181  18.513675
N     7.244295  12.061442  20.856937
Ga    2.204329 -15.408933  28.635226
Pr  -24.286031   7.804026  -3.181128
Tc  -17.486726 -18.670097 -16.564396
Tc  -26.711543  -8.712692  -8.648638
Cu    8.222196   1.173602 -16.125483
La   10.386158  12.546610 -17.875430
F    -5.481459 -30.317228 -13.477146
Ni   -8.469560  20.434898 -23.777951
Tm   -6.457863  28.700263  14.562256
Rh   29.753801  11.936956   1.941721
Na   -7.221710 -11.570323 -29.803361
Cr  -25.780367  10.822390  16.649343
Co   -9.850062 -17.971719  13.645291
Pt  -22.830342   2.750927  -5.277682
Ta    3.220117 -32.236282   8.306243
Cs   17.367523  12.262457  -3.716949
Rn   -5.886063   2.651784 -13.616455
Nd    7.532510  -3.903619  -2.577434
P    -0.083508 -20.398323   7.750209
Cr    7.941083  32.306366  -2.437791
I     1.312564  -3.146938 -33.325187
Rn   -6.963209  32.274199  -0.051574
Te   30.070750  -7.533351   1.016861
P    -1.074364  -2.364589 -25.909526
Al  -13.189470 -13.014508 -20.968688
Na    7.820775 -24.102270   3.079698
Te   13.460953  27.694934   5.286899
Rb    9.616274   5.188490  15.431983
Nd   -1.908591   2.593438 -19.040126
Ho  -16.373490 -17.015561 -14.872976
Tl   13.023553   4.076653   4.016676
Ni  -13.205922 -12.506739 -22.474618
Lu  -22.538026 -11.638318  -8.384763
Ta   13.775733  -1.357315 -12.042100
In   -5.268415  21.191157 -20.134267
In   10.323994  20.088406  -9.767630
Bi  -24.098095  15.348474  -2.767494
Ar   18.686031   2.775370  25.959592
Ga  -10.811925   8.205144 -22.084173
Xe  -13.716495  12.515754  13.368787
K    27.013438   4.728892  15.337183
Pm  -10.774831   0.050204  15.422383
Rh    6.606365   4.977138 -31.578849
Ge   14.782267   6.073227  -1.847059
Ir   -5.243075  -8.573615 -29.066388
Pd    3.526143 -15.076108  26.074801
Nb   13.428516  -8.184449  -9.075474
Pb  -10.683730 -20.373001 -19.132199
La   11.827057   2.582915 -29.610145
V     6.210255   9.038060   6.370869
Eu    7.228724 -12.912022   4.362339
Ag   -3.436886 -19.754074  22.625426
Ru   11.147677  19.828364 -16.564369
Pr  -13.145480  25.306082 -14.269545
Nd    2.187001  19.314930  -9.479193
In    4.116134  25.757925 -19.158064
Cr  -18.258615  10.302855  12.677100
Ag   23.604830  19.182937  -1.891678
O   -30.816535  -4.166235   1.364825
Br   -4.330566 -17.944290 -11.631643
Nb   16.459360 -14.261186   1.308743
V   -18.769123  -8.841899  -4.396277
As   18.552403   0.848458 -11.260421
Ca  -12.303250 -11.165508  -8.590035
Al   -3.181790   8.723016  -2.856869
Se    3.758300  28.851324   0.362114
P   -11.336056   0.219998  -0.471484
C    24.266809   8.750931  17.046856
Pd   20.284772 -20.965566   5.580755
Pb   13.582995  16.244721  11.529762
Tb   -7.262562  18.080327 -20.911744
N    14.949371 -22.584345 -14.032865
Kr    2.998600  32.846946  -0.133341
Nb   13.149492  -4.693281  13.975276
Sm   28.043311 -11.334632  11.394563
Rn   24.093746   0.481781  -2.874347
O   -29.941754  -0.488405  -8.075052
Ar   -0.208639 -18.397740 -12.317542
Eu   -2.889919  -6.138402 -27.826106
Zr   18.029581 -12.342172  19.990024
Te   -0.536069 -29.383804  -4.918979
Pt   12.703795  12.149587   6.045590
He   10.985427 -22.119823  -5.503210
V    12.772704  -6.600301 -14.780262
At    2.439039 -21.124488 -10.744707
Po   -0.039486   3.229456  -6.608616
Ti   -8.802723   3.614622 -28.941568
At   -8.199910   6.802814  -9.698240
Nb   14.170186   3.846893   8.781440
Mo  -24.273115 -18.985885 -11.902891
Ti   25.701968   9.580067   9.541210
Tc  -18.412542  -0.341706 -10.248797
S     3.974589  24.192308  12.058780
Cr  -14.458465  -1.994805  15.642705
Mg  -18.094003  -2.719112 -10.181900
Re  -11.333002  10.759703 -19.785756
Be  -21.996469  11.344820  -3.334703
I    25.640710  14.359054  -2.097797
Nb   17.895884  -4.905547  14.860626
Ne   10.358715 -11.797060  -3.860768
Sn  -19.245055  -4.474404 -11.219627
Tl    9.504872   9.755839   5.035637
Pb    7.927579 -17.746107 -15.347590
Pd   -1.229498  14.712820  18.587970
Ba   -4.748143  20.158732 -24.318111
Lu   -5.302905 -30.297850  -5.488472
B   -15.486598 -10.865237  -5.353670
Mo    7.378706  22.445851  10.309345
Mg   -2.605086   1.906961  29.189146
Cu    7.466485 -11.455835  -4.988965
W    -6.435518 -21.642005   4.176504
Ca  -29.125816 -12.364984   0.649390
Ca  -22.697393   8.971051 -16.984050
Sm  -12.804395  -5.755245  -7.826353
As   30.042973 -11.461202  -9.432020
Gd    7.086488 -16.408363   8.529345
Eu   20.150540 -14.592131 -10.827145
Xe   30.891687   2.169233  -8.727560
V   -13.682744  -3.609438   6.069208
Gd   -5.731303  -9.882202 -26.057141
Zn   10.003493 -22.728266  12.755843
Si  -20.684874  25.512470   6.485807
Br  -20.582711 -25.449185  -5.624855
H    13.088438  -2.546076  -5.899657
Pm   15.036507  -7.847793  -4.414399
Nd   -6.357827 -28.341528  10.240407
Li  -25.677667  -9.945893  -7.073382
Kr  -27.641402  -2.346320 -16.402298
Sb  -15.513620  -9.666302 -21.236733
W    18.274347 -11.842371 -25.439124
Li   -8.998643 -18.181772   0.402431
Sr   -3.663499  13.767735 -15.381615
Mg  -30.595065   0.101718   3.644001
Kr    8.187763  30.580588  -4.993439
Te   12.436293 -23.200326 -11.296199
Se  -18.114716  14.396209  -8.212673
Te    3.669209 -25.022941   4.594933
Al   23.137237  -1.574235 -21.188171
Ne   22.108524 -19.075336 -11.103916
K    -4.146158  10.639314 -21.087337
Fe   11.136771  23.617879  -8.435984
Se   -0.790269 -26.344918   0.664834
Co  -13.238426  -8.553075 -26.191907
Cu    4.518625  17.080605 -15.384540
Nb    4.261965  22.547344 -13.547142
Ge   -7.107736  10.075338 -11.339320
Ar   21.467343  -0.640257  -8.544847
Au    2.769815  12.712902  10.111293
Hf  -10.812008 -18.686016   6.967584
I    -2.170211  17.093012  13.476452
Br    1.991661 -13.030527  22.082649
Cl  -14.037213   1.251049   3.751516
Er  -29.907914   3.938713  12.372136
Er   -5.097957  21.459771  22.386263
Br  -26.984433 -18.658064   1.590025
Rb   11.997030  15.591819  15.002614
Ru  -18.507008  -4.128734 -16.218789
Rh   25.435609  13.223635  13.961916
Au   -0.019301  23.459239 -23.102298
Yb  -19.343975  15.771683 -12.732062
Ar    3.927673 -15.801821   8.097415
Ir  -11.482555 -12.590761  25.291201
Xe   27.187232  -4.679409  -8.070055
Ne  -29.420746  12.477207   1.206988
Zn    7.238656  24.033499  -7.853617
Eu   11.519182  12.168939  -9.659923
Ga   11.960688  16.963926  -2.387513
Ce  -17.080166 -16.016266  -7.348413
Eu    3.948491  -7.677019   4.357050
Fe    0.995396  23.024519   3.991613
Ta   12.566931  22.763311 -10.036441
Pm   -6.118706 -30.880907   9.744040
Ba   15.210293   8.727188 -26.865620
O   -19.386037 -15.563245   5.064254
Nd    5.170641 -14.105495   7.590103
Cu   10.278430 -23.306417   5.780590
Ar  -18.749215  16.235037  20.376961
Ho  -21.940254  -6.286035  16.978037
O     3.376465 -29.340054  -6.623041
Tb  -14.017380  -2.090617 -16.314246
B    -2.201771  -3.610537  18.702125
Na   -4.221216   9.049495  -8.748940
Hf   -0.632917   5.131303 -20.438626
Kr   -6.122326  28.014682 -12.956556
Tb   -3.630888  -7.085813 -28.545490
Ni   16.296187   5.320719  11.505783
Rn    6.391523  25.719446   7.047676
V    -5.836313  22.334476  -8.492013
Ca    8.661624 -11.579982   7.749156
Er   31.558082  -8.869152  -6.639032
Kr   12.328151  30.252117  -3.233353
S     2.497164  16.800101  19.494825
Ne    2.676031  19.791506  -7.199875
Bi    8.607043  -0.145934  -1.998203
Mg    9.733415  12.065853  13.524309
H    18.524805 -10.835256 -19.968138
Ho    4.961460  10.309417  -9.112809
Sm  -18.103701  -7.329427 -11.695646
Y    17.054405 -24.428083   5.351885
Xe  -11.674785 -17.126631 -11.624280
Os   20.598907   7.636936 -15.779564
Mn    6.079847 -23.049355   5.030267
La  -17.249588  19.822421   8.805422
Ca   21.386391  -0.573924  -3.695134
S     4.378071  19.564623  26.098008
Cs   14.894400  15.911020 -12.113080
Ce  -12.314453  -8.988606  10.231325
I    -6.771987   4.856496 -18.872515
V    -1.843011  -0.127698 -22.162348
Gd   23.278654   7.967577  -0.585372
Ir   17.910002   3.391308   8.285796
H    19.611366  -9.793055  -0.977327
Mg   -8.478542 -30.161420   6.841496
Ne  -16.566990 -20.806548 -19.649500
Sm    2.404295   9.993720  10.019352
Co   19.744187 -20.348185 -12.230411
Y     5.747499   2.314900 -31.750631
Pr  -24.074586  -6.716529 -20.886236
Cl  -20.686841 -12.286032  21.391653
Ho  -12.558875 -10.040622 -28.180099
Ne  -22.552158  -3.632027 -15.927765
Cr  -14.300751   9.568421  14.285814
S    13.753714  20.990484   1.698381
Y     1.147459 -21.269618 -15.883598
Nd   -2.099267 -20.914658  -0.741081
Zn  -14.470877   5.957563 -18.483391
Sc   14.694739  20.478723 -18.029876
Tl  -15.531711  18.483841  -5.096043
Dy  -25.167409  -0.355302 -20.186939
Kr   18.190626  18.669984  -4.199429
Fe  -25.693262 -17.623192 -11.634477
Hg   -9.584763   2.406556 -27.322445
As  -15.222151  11.580569 -18.360998
Si   -4.946602 -28.992002  10.053790
Y   -30.816572  -0.996958   7.016432
Pd    3.524163  -1.668945  23.835486
Mo   25.298979 -11.742716  13.527226
O   -11.015407 -12.682373   9.353113
Si   24.443581  16.615554  12.255732
Ag    2.338929 -30.902407  -0.810157
Tb   17.284363 -20.828588  -5.215692
Ba   10.610769   1.164687  -9.590463
Dy    2.626211   3.243878   2.650762
Mn  -24.265825  -3.247903  15.456905
Sb    4.476873  13.078161 -22.091615
Sc   -9.122517   3.253734  26.363475
Rn   -7.649425   8.431402  -0.804495
Li   -9.335813  13.893689  -4.925387
Ag   14.644248   3.765170 -26.351231
Hf   -9.378442   0.667735  20.814280
Ag   -5.248939  -4.940471 -28.094532
Sn   -1.251786 -13.510572  26.592820
Zr  -14.197254 -16.206968  21.468430
C   -13.977898  16.564203  -8.181627
S     9.083599  -4.680252  -6.053347
Sr    0.182594   5.824731  -7.492509
Cu    6.257456 -12.917067  25.023129
Ni  -25.920072 -16.265755  -4.887380
Pm  -14.210099 -12.840680  19.981136
Ir   -1.939832  -0.594903  28.520696
Sc  -23.854729  -8.115137  15.905882
Sc    8.899864  22.490854  -8.160823
P    -1.592110 -12.166231   3.731372
He   13.559780   6.379557 -15.610231
Mg  -17.892666   8.373322   7.353633
Al   28.346370   5.301352  16.942514
Pd   14.121974 -15.997769  15.027170
Se   17.234492  11.150030 -21.925133
Rb  -15.032209  25.992964  14.746077
Na    1.280636   8.072872  -3.965264
Te  -18.095584 -13.330888 -21.763475
Sm   19.090975 -13.211697  21.084335
Ni  -15.854641 -10.187847   5.998040
Nd   11.138568 -17.329457  20.820864
Mg    7.603322   4.435127   4.283621
As   27.616804 -11.284614 -12.768595
In   19.515394  -0.276281   3.497482
Al  -10.670120 -14.451659   2.864038
Ti   -3.957337  -2.337329  11.859290
Cr   16.797389 -12.460063  14.708660
I     9.349584  10.026905 -14.295012
Ce    3.616047  29.519547  -4.328782
Hg  -17.380215 -21.243162 -18.160297
Rb  -15.501266 -28.370655   2.653523
Y     2.657965 -32.741268  -1.395349
O   -23.095119 -17.745510   9.473926
Yb   -3.673063  -6.079120 -16.552730
Ce   15.542789  -0.732013 -28.696155
Ta  -17.350361  15.674302  17.940307
Sc   12.376883 -14.471235  -8.056173
Na   12.125419   0.726979  15.179262
At    7.304405 -25.170208  20.030860
Fe   -6.533276  15.949968  12.016342
Rb  -12.606063  16.620818  -8.795579
Er   -3.804364 -30.266901   4.230627
Ru   -5.532141  -2.349924   3.883029
Na   10.870473   9.163458   4.733579
Sn  -21.512909   3.874461  21.214599
Sc   -1.348869   8.517715  -1.782958
Dy   -0.509179   7.221762 -17.790834
Bi   -6.601516  12.752596 -16.114244
Sr   18.829537   7.519874  -6.453652
Si   14.883323  18.108308   9.529258
Se   17.425745  24.453553  -4.386408
F    -9.362240 -18.254723  -8.435772
W   -19.586728  -4.349603  -3.675419
Re   24.241925   4.661844  10.578538
Ge    8.530063  -7.723306  13.952736
Ar    0.989078   6.013198   8.874522
As  -11.011205  -5.792691   7.059980
Cd   28.556631 -12.688597   4.502705
Pt    1.073699 -28.595834  12.794825
Ba   19.890205 -13.681181  -5.605867
Lu   29.845951   1.525629 -14.354879
Rb   28.751204  -3.092412  -8.118249
Ti   -1.456291  25.824207  14.773240
Nd  -10.892748   6.625684   6.479887
Lu    2.431706 -23.736438 -19.324948
Xe   19.629507 -10.465453  -4.548712
Mo    4.913981   1.555569  16.477474
Gd  -27.290443  -7.281253  -0.944559
Ru   18.740328  10.595835 -24.577834
Rb  -21.532906  24.353194   4.126998
Ce    9.510070   2.172145 -16.014733
Ge   -4.246071   7.998827   5.951102
Ru   15.343578  21.812309  -3.261480
Au   11.444574 -11.812854  -1.273615
La  -16.747065 -23.726420  14.210974
Yb    5.445031   9.910661 -13.393945
Be   21.550510  -3.976651  -9.189355
Al   24.213216 -17.473890  -1.377617
Tb  -10.599405  22.732049 -19.580140
Ba  -12.776192   6.677218  27.516295
Os  -17.123651 -23.943151   5.034445
In   -2.802595 -23.757178 -11.277723
Li  -11.306851   1.103634  -8.305980
La  -12.044159 -12.555810   3.806978
Ne  -21.685255  20.297884 -11.612533
Pb   19.112391  18.190669  -0.432061
Bi    9.560892   2.334538  13.192376
W     7.200861  -5.195829  32.119724
Y   -13.439556  -8.253919 -19.533015
Ag   -6.107607  -7.514151  -1.653397
Hg   20.347202   2.340427  15.863337
Sc   -2.104090  23.783560 -14.533997
As  -17.999176 -15.568540  -5.151518
Kr   31.388863  -0.229491 -10.873949
Hf   -2.705561  -1.852538  28.421327
Yb  -28.186827  -5.157715   6.322881
Br   10.980263   4.864867  -2.933304
As   20.112697  26.331385   2.286945
Zn    1.094453 -13.171964  25.800798
H    15.902738   0.149007  -6.081900
Gd   23.725068  12.057560 -14.460445
Cd   16.774930 -17.611049 -21.949158
Pt    3.352257  11.490565  -6.804030
Nb  -14.462444 -22.408752  -3.956048
Re   -0.812580   7.921755 -29.452504
He    7.326183 -20.651688  16.614560
Cd    3.800082  16.123208  22.228592
Sb   22.931176  10.628416  21.894541
F    -7.014377 -18.242776  16.634080
La    4.959143 -12.207840  16.979593
C    17.442711 -15.658088  -0.078140
Sr    5.671365  -7.815515  18.081169
V     3.370350  -4.569019 -17.526837
Ta  -19.637880 -15.418495  21.172569
Ti   16.051224  -8.411916  -6.694339
Au   15.281829  -6.092371  16.172308
Mo   -1.362260   3.312575  32.440388
Sn  -27.158398 -10.520228  10.499071
Hg  -32.251823  -2.409166  -4.672265
Gd   -1.401555  11.800220   3.593256
Rb  -21.214074  12.336028  22.950606
Y     5.852125  -0.445702 -30.092985
As   -9.438114   0.549543 -14.867209
Sm   10.165151 -10.080887  -0.178393
Pt   -6.371871  -1.128756   2.228823
At   -6.661714 -21.831031 -13.020441
Ga   -5.009721  32.480967  -7.028507
Ho   22.764413   7.054060   2.821286
Rh    6.304176  -3.811196  32.699360
Br   -5.287561 -19.837631 -24.226589
He   27.541387 -11.725738  -6.551722
Ba   24.919541  11.913620  -7.273039
Ga    4.271813  21.258529  19.300398
P    25.978997  15.629451  -9.528062
Fe   16.648391  -2.313700 -18.224572
At  -14.999007 -18.932461   7.673048
Se    8.132230 -13.648635 -29.558697
N     8.013927  10.026782 -15.393804
Pd   22.510805   2.296869   4.745085
I   -18.670032  15.154083 -16.720347
Ar  -18.671353   4.022444  12.272024
Ba  -13.365207  -4.406710  24.170439
Re   -9.589545 -20.436436  23.247527
Re   -7.163798 -21.209153   4.366484
Pm    3.473028   7.471837  24.434702
Pb    1.581162  -5.397129 -29.633531
Rh  -16.348656 -22.530936  12.035825
Kr  -22.371473   7.557256 -12.411164
Ce    3.428052 -18.404600  -9.428361
Li  -17.969564  17.684747  -0.708251
Mn  -10.357821 -18.177400  15.595650
Xe  -10.835420   8.215254  27.107367
Co  -11.318796  -3.346534 -11.175982
Ho   12.480754  23.277933  -5.329471
Nb   -4.649105 -14.926164  26.542516
Sm    8.001066  -8.836430  -7.740119
Cl   -8.313561 -17.634317  12.708770
S   -22.321824   2.067066  18.351610
P     8.942296   3.788962  23.639592
K    26.621324  12.555616 -14.506482
Cs   18.102397  -0.357832 -16.768447
He   24.363877  11.493942 -13.224855
P    -2.542980  15.081134  -2.316783
Ru   26.027789  16.832762  -2.205118
As  -15.788408   7.749108   7.045647
Zr  -29.330632   2.581244 -15.014531
Cu  -27.737460   0.996216   3.788755
Sr   -3.297506 -26.783334 -16.186677
Ge   12.367106  17.788184  10.108654
Gd   13.962005  -3.091673 -12.613046
Mg    0.167463 -15.549877   6.081976
F    -6.478593  22.987141 -18.443107
Mo    0.656291  25.381659  17.838433
Br  -25.726450  12.208511   1.456105
P     8.262668   7.142892 -25.194057
Nb   18.080988  12.561896  -7.328154
Hf    4.431049   3.596501  10.512485
Au    8.653910 -25.296633  -0.692786
In  -14.389272   3.833867   0.585706
Po   -1.895516  18.380397  -3.211049
Lu   16.583512  12.129170 -26.230755
Se   14.963532  -6.043820  10.886287
Zr  -15.321570  10.451079  -2.190350
Lu    7.192537  -4.152015  28.798015
N     9.729328 -16.543523   5.598788
At   -6.890358  11.770575 -26.992023
Ru  -13.065683   5.611174  -5.125719
W     3.950544  15.509353  21.534988
Ga  -12.389090   5.049246  18.001655
Si   12.823980   8.399792   0.863760
Lu   21.878152 -17.020017  -2.736956
Rn   -1.107455  19.381600 -13.673432
Hf   -7.363932  15.014102  26.804322
Ce    4.057803 -16.253634  -4.654955
Na   15.040681 -19.735749 -11.516748
Nb    8.825713  15.616370 -12.959959
B     5.582811  24.087749   0.070644
Ru  -24.097067  -6.018053  10.128889
Yb  -12.920537  -9.814000  22.641729
Zn  -15.888209 -20.705779 -14.515874
Zr    6.202524  15.915936 -20.143180
Ti    2.277517  24.243345 -22.617090
He  -12.934764  -1.236292 -21.993567
Ir    2.258831  -4.628062  19.525245
Ar   18.026625  -9.288603  -9.858593
Ca    4.268843  19.280803  -7.150579
Zn   14.422695  -6.696572   0.178311
In   27.138327   2.615665  -9.367517
Os   -6.599008  15.322531  -3.192949
F    -6.806671 -13.873435 -17.157242
Pb    1.348542  -4.034548  15.829357
As  -28.417616  10.243703  10.835116
F    25.230993  -3.085551 -17.680367
Xe   -9.852736   2.116961  22.956473
Er  -18.529470  -7.439592   0.898776
Tm   24.042387 -13.777486 -18.764254
Si  -19.617601  -9.657745  24.100252
Rb   -8.678574 -14.427346 -26.362574
Ir    4.316781  17.412186 -12.537849
Tc  -14.641137  -0.554754   3.580671
Si  -10.421064  -9.549481 -27.738476
Nd   -0.912488 -18.486677  -5.555200
Mo   -5.881671  27.456136 -17.894791
Al    8.448225  -4.054332 -30.030066
Sn  -19.543984 -17.372710  -7.931722
Y   -12.927397 -12.546422  -0.744795
Lu  -16.926451  -1.966055 -22.308717
Dy    7.390353   6.479089  17.804915
Gd   -1.197334  26.863972  -7.306082
Ar   -6.952462  20.107157  -3.775746
K    26.855237  -7.143757 -12.605844
Sr   19.750735   6.360440  24.218996
Er   -7.073121  -2.825461 -18.906001
B    20.602139   7.005642  13.064831
Gd   -1.096809  -7.025192  19.473853
Cd  -15.416808   3.189667 -26.179046
Xe   -6.128142  -3.767506  19.411463
Pr   -3.001800  14.281994  -5.586805
Os   15.863080  -5.336052  19.513532
C   -12.029356  -9.015142 -19.095386
Os   17.920556   8.873990  24.750141
C    -0.919168  23.254597  11.014286
Co   -4.795980  -6.378433  26.266955
Rn   19.228655 -10.221524  22.805507
Cr   -1.569924  13.860502   6.716907
Cu  -18.555320   7.038198 -19.197737
Tm   26.514367  -8.871097 -11.752118
In   -5.978910  31.388956  -5.432543
Pr  -20.057456  -1.299635  12.006969
Sm   -2.097680  -3.628382   8.407392
K     3.784246 -14.122142  19.754570
I    25.571956   2.605475 -10.142664
Cs   -8.878901   8.612149  26.647306
Ta   29.776707  15.038279   1.381015
At   18.427423 -11.321714   9.176980
Ne  -24.607203 -14.858097   6.299879
Hf   30.820842  11.379133   1.111083
K    17.436171  18.286903   3.537787
La   10.334298  18.858453  -1.545139
In   13.651520   8.147853   4.315528
Mo   -6.853801  -4.938610 -24.797300
Be   -9.401420   1.985432  -2.306308
Cu   13.347159   8.000253   3.069326
Xe  -20.893760  -7.687534   0.254464
Te    5.951577 -29.279476   9.761802
Ta  -16.280089  -3.536840 -20.287692
B     7.348390 -14.044527  28.858781
S   -22.354123  -5.030373   5.055149
Er   14.074560  -8.145978 -24.273614
Nd   -8.372645  -9.045673  13.156320
Tl    0.832660 -30.645354  -8.457627
Ne  -25.211427   6.466165  -1.303205
Hf  -12.454862   9.970619  -3.238347
N    -9.086165  -9.962277  17.767895
Hf    4.277998   4.924874 -26.350019
Lu   -8.974883  23.281495  -2.667103
Er    3.780682   3.521309  16.930920
Re  -24.311049  -4.264723 -22.778739
Fe  -10.884016  28.752245  -9.540142
Ru    6.131244  31.011526  -5.778457
Pt   17.534385  -6.307291   1.815188
Ag  -12.314261  17.220628 -10.324824
Ir    7.851387  26.029808   8.979801
Al  -24.674879   6.277940   1.846768
Ag  -26.715663  -9.680496  -2.594909
Re   24.321535 -13.504248  10.767293
Zr  -18.873919 -10.425301 -18.784878
Se    2.407593  21.103068 -25.322861
I    10.663791  25.602514  12.275224
Dy    5.852267  -1.657958 -19.180477
Au   13.622860  23.447395   4.946582
Gd   18.698438  14.458620 -16.238820
Be  -10.758567  19.828564   7.058275
Ta  -19.803414   7.306563  -8.414263
Kr   29.699152   0.642919  -7.039785
C     0.986289  12.893401  16.182969
H    21.309840  -1.458776   7.945296
Ne   11.899151 -12.890008  28.276368
Tm   25.851811 -19.459712   7.930073
C     1.496165  30.162322   2.125008
Tm  -10.145558  -8.127653  25.833758
In  -13.760491  13.593281  -2.692064
Cl  -18.240381   6.352486  23.685961
Pd   -1.901910  27.467931  -7.160919
Tl   -6.582776  19.024834 -25.951736
Ir   25.787084  -8.767066 -15.243966
Mg   -4.608750  28.235397   0.345295
Mn  -13.371910  10.999490  12.372443
Cr  -10.288841   2.720217 -21.119904
Os  -12.991874  20.179517  -2.915953
Ta    4.350073 -21.079602   8.551383
Nb   22.924362 -20.114158   3.142978
In    0.188316 -18.157883  11.847752
Mn    6.917061   6.674653 -21.331374
Be   24.746261  -3.488416   7.243622
Li    3.029363  11.574366  16.427103
Os    6.755732  22.955566  11.043092
Tl   16.007990 -22.561726  15.911911
Xe    3.469890  -7.764037 -28.967720
Cd  -22.196801  12.892455 -16.649876
Zn  -16.807069 -16.396907 -19.133402
Rh   18.600834  -7.916900   2.709617
S     0.160820 -24.656153  -3.692386
Hf    3.910360 -11.272580 -13.553769
La   -1.836514 -13.217160  13.020282
Al  -13.265507   9.474642  -7.449448
Tl  -24.126431  14.442347 -15.634217
Ta   -4.458391 -16.861844  15.800225
Ar  -17.100950  26.328079   6.613010
B    -2.829362   7.033532  29.711695
Ta    6.053889  15.711790 -11.561157
Ce  -11.173785  -3.316101  20.862864
Pt   -9.397153 -17.318858  17.933882
N    -0.173946 -16.098543 -22.450910
As  -12.767533  11.465542  18.692644
Gd    2.862902 -28.011354  16.172957
Nd  -16.980873   6.057163  -4.755766
Nb    3.042868  13.923270  23.543189
Al    5.192515  -6.990653 -17.234352
S    -4.361010  27.951428  15.858882
Mo    9.902411  13.133368  16.952612
Gd   19.969102  -0.845890 -18.903817
Sb  -23.451254  -1.108318  19.714336
He   -5.522247   6.634005 -31.438281
Nd  -16.618286   5.937874  21.154222
As  -20.204550  16.258127   2.393095
Ba  -13.848202  -5.575017 -21.509771
Mo   -6.433489  16.392136  -6.722811
Ta    9.945667 -20.418589 -13.257546
Ti   -2.911987  -3.330318  31.725483
Tc   14.593176   4.136506  14.175039
Br   -9.064743  11.854310 -26.174270
Sb   -5.820613  10.117687 -11.570003
Y    22.213487  14.940362  19.768022
Dy   14.986726  28.317089   2.496716
Po    0.300562   3.810879 -29.975776
Ce  -10.099143   0.037061 -23.942336
Sm   -9.232419  -3.184127 -24.944159
He   21.512964  13.837046 -19.503202
Tb   19.447688  -1.700569  20.571807
Ru   -6.458814 -19.731889   5.466792
O    11.071800  31.216743   5.410796
K    -0.355430   6.298807   4.092669
Kr  -23.091877  -0.879722   6.309871
Sc   20.985728  20.690773  -9.268450
H    -6.215777  22.588283   9.202810
Hf  -23.268708  -9.506563  14.697096
Si   -0.717927 -20.137469  -7.883409
C     4.860260 -22.085655  22.394612
Re   11.080127   7.857509 -13.608907
Y   -10.126591  21.522614  13.884187
Cu  -10.140071   4.273864  -7.210002
Pt    7.712675   1.767899  31.928837
Cr   23.347791   5.166176 -14.824248
Pm    7.621362   9.153468  13.523555
Os   10.777998   3.368013  -2.721996
K    -3.475061  -4.945986 -13.115678
Cl   17.462136  22.559110  16.300958
Mo   -8.898213   9.558124  22.855821
Dy   17.113518 -17.016160  -0.077150
Xe    1.631768 -22.799258   9.797939
Bi   -9.094158  28.215453  10.096532
Pd   29.275200  -5.002770   0.512110
Yb  -12.802529  24.653819  16.786116
Br    2.018106 -25.505766   2.655597
S    16.128787  19.812079  19.964093
At  -24.418640  15.590367  -5.082050
He  -25.827559  13.590486  -6.258981
Ho  -26.122010   9.963780  16.899149
Tl   17.883913  -0.007721 -26.469824
F   -19.913239 -14.510472   1.201121
Be   14.224016 -16.523461  23.502413
Pd   14.462787 -11.022033 -16.116404
Pt   -9.614977  -2.142268  -5.234252
He  -23.667925   0.619444  16.515263
Li   24.237764  -4.536767  21.004244
S     3.899024  20.698857  -9.106513
Cu  -23.679182   3.240222  23.638955
Mo    6.179166 -18.996009  21.266245
Ce   14.344786 -15.390276  -8.693242
Ge  -15.901451 -10.447380  14.143084
Re  -19.780539  15.244185  -1.742718
Lu  -12.201699   8.282423  19.179870
Kr   -8.105890  13.626694   8.963492
V     5.687958   0.369194  21.244180
Zn   -2.043886  23.325897   2.330405
Hg    0.165691   0.740951  23.612985
Sb  -24.755060   3.243930  15.793148
Ho   19.258479   4.219282 -15.427113
S   -18.633309  25.703689   4.839640
Y    -3.085660  -1.475358  -5.304920
Ti  -12.879811   1.003233 -12.829557
Li   19.278863  17.773333 -15.254629
P     2.481648   6.658953 -20.019054
At  -25.452676 -18.525547  11.372299
Xe  -16.169049  -0.503857 -14.998809
N   -16.770193  23.897935   1.533463
O    -1.879723  -9.039979 -22.098903
Cd    3.436362 -11.399996 -31.019172
Po    2.127940   1.439172 -27.527285
Ir   19.645106   8.510733   8.755492
Rb   14.961350 -15.891033 -16.532096
Tl   -2.470227  10.497445  12.528807
Dy   10.400026  -3.738647   0.644410
Cl   -9.481410   9.669729   6.465856
Ho   10.839500  20.960311  -5.998993
Ir  -16.749214 -18.177762 -12.343384
Au   -9.516946 -19.702980 -24.686788
Tc  -30.515726   1.148228  10.891492
Lu   23.199774  -7.016943  -1.569760
V    20.547061   0.335715  -5.701721
Cs   -4.601648   1.575252 -25.547561
Gd   -0.544548 -13.361928   8.364729
Pd   -1.799795 -22.211561 -24.026596
Ce  -13.415963   8.565706 -13.997045
Nd    5.644673   6.048013  17.076987
At    3.812322  20.214634   3.504903
Ba   -3.252795   9.129568  21.117471
Nb    8.678662  15.024745   5.245960
Pm   17.392021  -2.582913 -19.049063
Ca   -3.556036 -25.123113   3.386098
Ru  -17.611342  14.699098   9.811515
Co   -1.526126 -30.800282 -11.109333
Sn    2.121547 -17.414116 -10.145581
As   24.619756  12.464570  10.024387
Au   -0.280549   3.025065  -7.386295
Ho    9.425242 -22.873299   1.516711
Cl  -18.453775   6.858072 -22.796525
Pd    0.622703   5.425197 -26.492031
Ar  -13.079769  -3.385327   1.855150
K    30.110730  -8.875703  -3.218772
Pm   15.836653 -12.347795   8.382920
Tb    8.774430  -4.500082  21.483429
Ni    2.268850 -13.074193  18.611406
Al  -21.022035   0.389417  -0.134998
Gd   -1.265184 -32.713272  -2.494945
Pd   -7.734912 -28.730210   2.054363
Pm   13.087368  23.762413  -7.935303
Pb  -21.516981  -2.348329 -18.673822
Er   17.094749  20.945324 -11.362634
Gd  -14.691262 -20.163541 -22.023029
Sm   -1.733050 -12.651390 -30.495566
Os   31.603380   9.925700  -2.885788
Pt   -1.228544  31.302478  -3.860569
Gd    6.951557  -7.243799  22.578937
I     4.949231 -15.933945  15.461075
Pb   23.592326  16.363992  -1.111329
Eu    1.384461   4.728274   2.924083
Er   23.281069 -10.248773   6.747657
Yb    3.452016  25.408573   5.177108
Sn  -10.434562 -22.227554  12.006865
Tc    1.587618 -24.202056  21.242263
Er  -15.073630  -5.519916  15.191120
Er   -0.534924   2.522633 -17.575414
Ti   15.904851 -15.015327 -14.085990
Sb   28.803120   6.824756 -12.648282
V   -13.097767 -21.887964 -16.670602
K    -6.132863  -0.733169  -5.380509
Cu   19.518918   4.224790 -26.052287
O   -21.148364 -20.389760 -10.608092
Ho  -10.770932  14.272117  -5.446515
Bi  -16.259313  -7.200452   0.954789
Lu  -15.008598  -5.416775 -27.320923
S    25.489513   4.324655   4.262028
Na   24.202322   9.988871  -6.495705
Sr  -25.420234  -3.498948 -14.109148
Mg   21.681655   1.661642 -15.144101
I    18.478488   6.597775 -17.845983
Ne   21.658242  17.798384   1.760184
He   -1.585746 -12.055489 -29.583333
P     7.876218  10.784741  29.953352
Pr  -13.081334  -8.215529  -8.485842
F    29.849536  -6.442289 -11.621230
Ga    2.325024  22.228500  10.653732
Lu   17.792460  12.600885  13.342394
O     8.815219  10.863699 -20.313053
He    0.015356  22.011488  16.660667
Sc   27.790873  -5.941531  17.698746
Er   -5.486298   2.534536 -10.905548
In   13.653450 -25.937666 -11.420858
Ta    7.821834 -21.111403  22.115696
Sm  -24.614889  -1.679099 -21.970890
N    -6.475210 -15.244772   9.392337
Sb   20.435612  16.392840  -8.521555
Ne   -6.984694  15.499089 -13.675548
Tl   18.429456  -4.297655 -25.812984
V    -6.439894   3.597735  15.554720
Mg  -16.173121  24.438066 -11.940637
Hf    4.200930  -9.865351  10.880274
Tl   -8.656044  -3.414017 -13.788108
Au  -26.206438 -17.893639  -4.630847
Na   20.364761  23.270703  -7.026485
W    -2.941163  15.529020  -6.100368
Ag  -23.316873  -8.406581  -3.673664
F    10.401023   2.891789   8.012208
C    17.537308  16.117827   8.026093
H    -2.314229  -5.142166   9.443775
Na   24.852369  -2.097843  -7.902024
P     5.884676 -26.579162  -0.043336
Os  -17.860201 -14.080888  -8.110371
Zr  -18.715372  23.400407   3.047027
Sn  -10.359762  12.394958 -23.487791
F    11.455046 -18.901510  23.370336
Cu   11.357124  -2.397260  24.840736
Hf    8.299102 -15.941580   9.998469
Ar   -1.031739   6.774778 -30.961975
At   -2.016411  14.388348  15.197916
Sm   27.296101   0.264924  -6.563649
Ge  -12.011295  17.846137   5.164232
Dy   -5.724501  -9.670878 -29.824771
F     0.985648  -0.722823  26.422700
Si   21.488531 -15.196993  -7.350170
V    17.727800  -3.295549  -8.958717
Rb   15.889774   3.852432 -19.767120
Hg   -8.191808  -3.256698   3.977094
Eu   23.169613  -3.670262 -11.588710
Mg   -2.581187 -10.654320  22.302848
O   -10.999945   9.267718 -27.845913
V   -26.371051  -3.272157  -5.748437
Cs   -8.554446  -9.007307  22.332062
At  -22.558315  17.814342   9.607699
Zn  -16.584553  15.240857 -14.342036
Mg  -16.011590  17.453270   0.954597
Pb    0.121089  -5.377480 -29.576487
Li   -8.022889  27.814974 -11.112555
Mg   -4.437408  18.896695  10.924804
Te  -28.608161  -8.306004  13.759906
Mg   -4.053260   4.736372  31.965500
Co  -24.584499 -19.555270   4.667759
Ni    5.264280  -3.520875 -30.719341
Fe   -8.882986  31.996285   1.947166
In   -2.814430   1.966120  -0.691810
Yb    7.416151  25.988488  14.405388
Nd    6.948724 -15.073036   1.149384
Tl   -2.419942  -6.805543   4.643592
At   32.011432  -5.890754  -7.858069
Hg    2.642329  17.797273 -22.027520
H    -0.418175  14.924558 -17.428412
V    13.481974 -19.412696 -16.640179
Kr   10.726104  12.483349   1.948785
H    -2.596057 -31.585430  -4.723754
Bi   -1.766548 -21.173308   2.722380
Li  -14.370163   7.877292  11.507310
Cu    4.040024  -9.806833  12.338161
Pm   -0.577549  18.780755 -18.508391
Gd   -0.326352   5.456976   9.996237
Rn    3.696226  23.267773 -15.970251
Pr   17.706557  21.233596 -12.457167
Nd  -18.100761 -14.137035  15.137050
Co    2.690082   8.288889 -14.216521
Al   -5.310738  -6.301620 -10.711704
Ga   10.035749 -26.943493  11.020440
Sc    3.729713 -29.157738  -2.042368
Al    9.431546 -30.479498  -8.916559
Rh   12.962352   4.635023 -16.494397
Hf   -4.007496   2.630561  12.213514
Lu   -9.863926  20.628306 -12.400635
Hf   -8.870552  -9.993020 -30.016462
F    27.217143  10.256968  -0.253256
Bi   18.214891   7.319113 -26.722562
Ga   -6.910820  13.000940   1.119602
Gd  -13.864131   0.217320  -7.584496
V   -16.913340 -12.938211   6.556501
Ho  -13.404967   2.676376   2.861427
Zr   13.831346 -18.930253   6.690342
Tc   28.875784  -4.903389   2.624785
Nb    6.308510  -2.063049 -28.722974
Pd    0.695007  23.662492   2.016511
Cr   11.480696 -21.031326   1.265679
Hg   10.365790  13.048246  -6.093309
Lu  -32.344430   8.780620   2.650614
Yb    9.563481  18.864835  13.334115
F   -22.679990  16.192257   5.109074
Ti    7.341536  14.734329   0.394504
Tb   10.132141  11.139254   4.198597
K   -20.753606 -15.437068  15.561250
La  -17.428240   4.142730 -21.593920
Sr  -11.795596   2.538682 -24.623049
Al   -3.294610  25.319369  -3.897585
Zr    2.795241  18.063174   6.963353
Sc   20.949251   3.354583  11.490500
Tb   11.343477 -30.523949  -2.272645
Tl  -17.644576 -12.984677  10.643751
Mo  -14.918135 -10.287910   6.792891
Ge    5.030905 -14.757413  22.764480
Dy   -0.825831  -9.551327  14.765676
Tm  -11.907105   4.121490  11.397240
O     3.242238  20.215638  16.451032
Pm    1.883527  11.357417   2.798722
Ge   -9.725351  15.399414  21.066852
Y    22.071981  23.310131   6.460218
Sb  -12.671325   9.026103 -19.341165
Cu  -12.092549   4.937081 -18.868947
Pt   -7.786190  16.359696  19.157854
Zn   11.707562   7.566809   3.194416
Li    6.331879   2.648116 -32.329946
Ti   10.066298  -3.452924 -28.342380
Se   -6.182786  12.770394 -23.051801
Er   -4.075254  25.151661   6.021758
Xe  -22.794641 -14.003004  11.440248
As  -20.156305 -21.224159 -14.140708
Te   11.458226 -13.215116 -25.937989
C   -12.456291  21.245339  -9.026321
P     8.010974 -10.616635 -18.213846
Pt  -11.458295 -21.533137   2.337916
Nd   -4.961179  22.367516  18.875672
Br   12.172336 -11.492467 -21.297369
O     3.994423 -14.527918  29.576304
Y     7.259954  -8.249014   3.101384
O    27.995650  -8.493544   1.080679
K    11.138846  -1.588075 -14.178520
Tl    1.915862 -11.465160  17.161544
Cu   17.369468   2.749863 -10.881509
Ca  -16.970564  17.661790  -2.438269
Tm    7.712670  13.471791  -6.366568
La   20.363683  -8.253469  -2.464213
Bi  -30.446734  -2.435276  11.630686
Re   10.260063 -24.198926   5.886999
As   -9.528251 -17.521258 -20.117279
Si  -18.882649   5.381305  14.678023
He  -20.307385  17.448578 -17.576499
Rn  -21.818321  21.018377  -1.825110
B    -3.421560  31.048036  -4.175636
Cs  -22.610014  20.795133  -5.761961
Ta   -5.163588  -0.926999  29.055757
Ge    1.314819 -13.988068   0.643392
Zr  -10.262144   8.264913 -12.203933
Ru    6.360257  18.948405   1.331621
Hg   -1.671921   0.380087 -18.110804
Sb  -14.027608 -13.093835 -27.381227
Hg  -16.132644 -18.789483 -13.195816
Nb  -13.694814   1.197131   5.518701
C     4.954498  16.345875   9.736921
S     7.519937 -31.824185   2.510797
Zr   10.970290  28.071207  11.825485
Te  -27.473482   1.063536 -15.941886
Ta   26.854234   0.481281   7.055906
Ce   23.786785  -7.894491 -16.546851
Te  -29.171685 -11.444355  -5.510926
Cu    2.138745  17.046971   4.580659
Pt    3.333737 -16.374685  28.210757
Tl   -8.436346  -4.929832  24.428590
S   -23.334706   6.082119  -5.912460
Al   -6.444694 -10.822058 -19.029236
Re    6.164308  22.373554  13.696238
Ca    5.441543  22.942791  -7.616013
Kr  -12.529200 -19.381100   8.278246
Nd  -10.480494 -16.259800 -12.629635
Rn   24.084265  15.368672  -0.049626
Kr  -17.073681   2.119895  -9.025903
Ga   30.883309  -9.207213   0.120523
Cu   20.247675  -9.290056 -18.240300
Ru   -6.699089 -24.577910  -9.953149
Re   18.187203  -1.036868  26.452416
C     8.996468 -17.745708 -16.368760
Pr  -22.822364 -22.257977  -9.754318
Ge  -17.299208   3.102765   4.920171
W    -3.464475  15.199340 -10.891799
V     7.667482  -0.212703 -11.433766
Zn   12.487408  -3.855114  -4.227633
Yb  -29.447161 -12.970574  -4.361540
Ti  -11.009541  26.522098  -8.076264
At   27.512023  -2.394250 -17.420281
F    -4.069110   3.208710 -11.256270
As    4.177035  16.638359  -8.855191
Tc   -4.819157 -22.875765  -0.177599
Rh   16.002087 -21.467347  -8.261001
B    18.143150  14.667689  14.226172
Re   13.630776  22.776695 -12.993094
La    6.596497   0.403554 -23.512697
Ni   -2.449994 -23.269569 -18.246249
Dy  -13.062721  12.540288  22.395457
Y     4.614038   5.990956  23.060945
Nb   -6.854227  10.167573  25.537282
Ce  -23.455795  10.099341  -3.888755
Cl   22.547589 -18.345056   2.181759
Mn  -17.673208   3.681463  14.629831
B     0.588595   0.771821  27.769557
Ir    0.989741 -31.004355  -6.866885
Tl   30.595961   4.258342  -4.928791
Dy   11.357317 -19.819054  -4.014601
Hf    6.134979   3.290831 -16.375639
Y    23.831069 -11.586703  -1.387700
N     5.511453 -24.516628  11.312771
Yb   11.110684  26.804001  -2.002439
Co   24.306847  11.815377 -15.992784
Y     1.761807  -6.156030 -22.477199
Er   23.062364  -4.958620  10.387259
Sn  -12.305496   2.197916  17.147695
Hf   -9.635543 -13.211058 -16.756398
Pd  -12.545910  13.352481  13.585008
N    -8.348119  -9.092343   5.147942
Y    12.800773   1.316206  12.960052
Pb  -24.621703  -8.379979  12.097015
N    17.503765  -7.584392 -11.023410
Ru   17.384424 -13.667534  13.945341
Nd  -20.453241  -4.587178 -11.770585
Hg    7.205200   4.475949  -2.032999
V    16.581980 -19.148479 -20.040189
Xe   21.157566   0.694093   5.117387
Tm  -22.770335  18.066112   5.329430
Zr   14.201506  19.609439 -21.247519
H   -15.008629  -6.629205  21.734173
Bi   -2.198117  12.006895 -17.137438
Re    2.911929  20.047209 -14.764265
Cs    4.907255   1.710038  18.672222
Ni  -12.483707  19.105512  -4.881533
W     1.377839  27.052887   4.541643
B    21.820047  10.660377  12.870296
Sm   16.020311  -7.050222  17.194307
F   -27.327221   9.087360 -14.838667
Br   26.457604 -16.158480   4.921332
Kr  -14.627799  -4.338618  17.474615
Sb   -8.274814  -4.218467  27.850180
Sb   19.011646  11.253376   3.924543
Rb   20.033773  -8.733325 -15.866868
Ga  -13.521124 -17.307561  -2.487619
Ce  -16.702662  -1.692747   3.239964
Yb  -23.021970   1.283558 -15.007012
Si   -6.674060  -0.763978  23.480521
Ca   22.185342  21.654956   2.564738
Tb   11.241632  14.496772  17.362351
B     3.052849  22.844672  -4.836209
Si  -22.286914   1.919977 -16.158587
Ta    3.675045 -18.971291  19.476599
Rh    6.526942 -22.447153  -0.320283
Po  -26.478789  15.054705  -4.789911
Lu  -10.010536  11.150121 -15.601352
Sm   12.011556  22.373927 -20.965606
Sr    5.291874   4.315409 -28.212862
Te  -14.843476  -5.739962  21.160582
Sr   -9.158594  -7.665243 -29.934230
Pt   -3.780928  -9.229071  -8.670677
Po   14.907620 -13.425579  11.950826
Ga  -23.932433  -8.923834  -6.149006
Ar    8.544132 -26.993905  16.941738
Pr   11.100375  -0.097923  22.916829
Sm  -20.432979   6.588815  17.017418
Pd   12.084962  19.369744 -22.322179
Ca  -15.564389   9.997996  -4.234803
Yb   -8.757301  27.888877   6.747949
Tm    8.112816  27.594672  -4.441308
F    -7.467370   8.943260  25.761493
Cr  -14.309482 -17.552407  -7.377388
B    16.096508  -5.918005 -26.032778
Pd   -8.164338 -16.593683   6.496197
Nd    3.288381  -1.737495 -20.691432
Cd   -2.622608 -28.283370  -9.664554
Sc   -6.312038   3.070261 -26.909374
V    11.386932  -0.818455  29.733009
Ta   30.343586   9.119162  10.617009
Pt  -17.601447  10.155106 -23.682760
Os  -30.384197  -5.358228  -5.385888
Cr  -14.477815  23.632847  11.257363
As   -9.518803  17.553383   2.796451
K    11.578683   4.542201 -14.328419
Hg   -3.295304  19.903855  -9.241690
Fe  -27.651440  12.671200 -13.504331
Ni    1.453836 -26.613712  11.048228
Ca   10.527292  22.750382  -3.550103
Tl  -14.383460 -24.679312 -17.099393
Dy    1.189983 -10.641302  28.518024
Ce   -2.416720  16.518548   2.153306
I   -26.188468  18.160725  -8.562075
Rh   15.832505  18.463794  -3.442023
Po   26.968316   1.627628   5.164424
Lu  -24.481178   9.759021  15.165746
Eu  -13.045513  -8.156351  24.008127
Cs  -12.178275 -20.054895  21.840858
Ba    6.758448 -16.503073 -20.817562
Y     0.422834 -31.766278  -5.168473
Er   -3.920417   5.788136  23.485368
Sb   15.666737   3.695372  -5.991771
Gd  -22.261291   8.747742 -13.631331
Hf  -12.474988  -8.530690  -5.888316
Ba  -12.471544   1.303568  28.668504
C   -24.064959  19.879161  -5.945464
Al  -11.613686   9.292912   7.359748
Ru    0.578659   8.095563 -22.520777
Mg   -9.969695  12.391786  20.277553
Ne    0.151903  14.954339  14.270680
Pr    9.060958  -1.840672  -5.763759
Ge    2.720677   9.835038  -0.179287
Er  -17.197906 -22.870660  15.972227
Ar   25.585736   4.639373  -2.726154
Zr  -24.489686 -10.881118   9.167087
Yb  -17.620114   9.968910 -17.274494
Fe   11.775196  22.652948  -6.881905
S    33.116429  -5.153520  -3.058270
Sc   12.109195   7.845540  13.435617
Co  -10.552050  -7.899874  20.583296
Os   10.432939  14.328135  21.409633
Os   17.345735  27.482699  -8.682684
Hg    8.556773   2.280222  31.117031
Ti    8.050525 -19.209378  -5.504537
Ge   26.408631  -6.113747 -15.713714
Kr   -1.328993 -20.564091 -13.415492
Sm   22.341787 -16.475181 -12.417074
Ag  -21.068910  15.170831  -6.392691
Os  -20.819727  -3.444140 -25.065497
V     5.807572 -30.587951  -4.627314
Rh  -29.334680   4.475735   7.010236
F     0.395579 -27.476004  12.294171
Sb    1.095673  -4.010905 -19.682320
Pr  -21.767559 -20.641309  -2.911200
Eu  -10.039691  19.341967 -21.321533
W    20.989390  25.503552   6.533750
Br   30.038349  13.675318  -2.865579
Nb   -9.311166  -0.650862  24.354266
Cr  -20.411584 -19.078784  -2.112776
In   16.968053  24.956927  -0.600128
Si    3.564823  26.754259  14.151131
Rn   -3.216880  14.635396   4.082311
H   -11.702648 -14.297778  -2.148412
Pb   23.665759  18.902413   4.789333
Ca   -3.435814 -17.169283 -17.830393
Zn   21.662739  18.273758 -17.805430
Sb  -11.700098 -14.429533   7.360733
Zn   16.704171   7.653111   2.307290
Tb    8.251297  22.588798 -12.413042
Xe    5.064897  28.626408  -4.834858
Er   21.383003  -4.998794 -17.322936
Br   19.952052  21.941721   1.194529
Pd    1.938407  30.771210  10.522467
F    -7.524870 -23.494126  19.584070
Ir   19.030631  -4.291199   1.245358
Zr   -4.890524   6.478672 -24.874565
Cu   -7.320183   7.020764  18.286663
Cu    5.460324  26.781225  -9.064224
Pb   15.705469 -20.372365  -3.747902
Hf  -11.164351   3.311707   3.062417
Er   26.181460  -9.251550   5.102518
V    -2.285582 -19.649881  22.258602
Pd  -13.719886  26.464297  -7.977182
Er   12.909790 -16.840641 -17.392258
Pb   22.273556 -11.369925  17.800045
Pt  -12.765459   9.796723 -21.344470
Ho   20.527633   4.835909 -24.195373
In  -16.422513 -16.464251   5.759564
Fe   19.804042 -13.153710 -21.539932
Rh  -11.611630 -12.949761   8.369846
Co  -27.135532   4.690945  -2.164455
Tl  -17.125779   7.815689  16.439256
Lu    1.301876   6.223855  29.112512
Xe   23.153423   2.425119   5.306009
He  -12.345849   1.959553  -0.606425
Rb   28.839487 -13.848762   7.672341
O    25.299367  18.617264   9.342852
Sc  -21.373167   9.650065  -8.870878
Mn   -5.137524   8.949345  -1.176121
Ti   -0.489050  21.653188 -20.644567
Pm  -21.696976 -18.336181   9.588549
In    4.390704  31.964849  -4.814966
Ho   17.042382   4.099196  14.157904
Ir  -18.062158   3.810243 -19.883612
Pd   -2.638418   3.293199  -3.417132
Ir  -31.698743  10.465090  -1.374559
Se    1.770969  14.139733  13.517871
Y    11.491165   9.640695   5.152281
P   -20.662837   5.320205   9.481621
Se  -14.038729  12.610414 -18.626865
Os   -3.169309  31.821660 -10.016082
Ta  -31.270745   8.283077   0.991419
Ho   -9.723292  -6.501740 -24.179638
Lu   -4.429577  29.959104  -9.609492
Pr    2.882651   9.411513 -31.986598
Rb   -0.487845  13.030316   7.380184
Nb  -12.128785   9.110380  29.128878
S    27.841039   8.807475 -12.373894
P   -15.139682   2.398704   8.067109
Rb   -9.461275   4.934753 -29.549419
Sm   -1.226742 -27.537858  -1.955154
Br  -12.690511  -6.004433  -5.041692
Tl   -5.775361  12.803426  18.368430
Ba   -6.783118  14.592531  -0.613932
Xe    4.319477 -24.094513  -7.324950
Mo   13.209883  -2.199319 -26.940811
Cd  -17.137661   7.240427  -1.325391
Ni   14.287658 -27.097250   4.728166
Sn  -23.534771  15.126470  12.015662
Pm    7.227412 -21.762583 -18.645683
C    -2.124726  -9.514305 -29.478596
Mn  -14.915835  11.400418 -22.421414
Rh   11.929004  16.004133  21.348149
Eu  -25.059919  -0.837370 -19.347358
Fe    4.139941 -12.833762  14.142944
Ge  -21.877462  -4.379468  -0.892794
Si    1.440946 -13.011786  -9.330469
Pb    9.969794   1.335393   7.509494
Pd   -2.697830 -21.718675  21.573345
Nb   -4.344007  25.062488   3.266374
Sb   -3.569337   6.822375   3.047218
O    24.311017   7.128642  -1.653290
Rb   -4.017096   8.076494  22.356236
Ir  -27.743572   3.059689 -13.835496
W   -17.542388 -17.973576  -1.556076
Yb   -7.365889  12.498380  -2.083689
Hg    8.154810 -17.915454 -24.119814
S     7.329734 -26.355681  -0.506075
Nb  -18.771619 -12.440152   9.574193
La  -19.673843 -12.731834  -3.294519
Co  -10.973913  -9.850483 -19.508393
B   -26.817035  -3.335140 -13.615324
Cl  -31.130177   5.953414  -0.651949
He  -15.975167 -22.774481  14.267618
Rh   12.326552  10.527705   2.306135
Ge    2.000855  -3.430038  20.574407
Ag    1.424601   8.115057  -8.825524
C    26.871600   9.623888  -9.218785
He    8.594459 -21.537371   4.239399
Rh   10.088453 -23.597987  13.898544
Eu    8.905969 -25.208159   4.227512
Pb  -20.289131 -15.275293  12.145490
Rb   -4.493858  29.495084  -4.371195
Mo   10.348211  12.046512  26.192950
Pb   -8.746059  25.823219 -10.900012
Ho  -20.930068  13.955802   8.502900
Xe   -9.581989  13.310048  18.688078
Fe  -10.490913   0.196818  -3.782355
Bi  -16.122837 -26.195899  -4.270078
Ti  -21.252809  21.805482   3.873606
K   -23.738273  10.611548   7.754440
Tb  -16.172723   3.849425  26.281588
Be   -5.405618  -1.363240  20.135768
Ar   11.610258  -8.625232 -25.686943
Gd  -16.428467 -10.370332  -0.394284
Tb    3.083865  -9.150599  22.966068
Si   14.645805  -1.509366  26.505758
He  -14.760293   5.247693  26.452791
N    29.154533  -3.407846 -12.874333
Re  -24.671712 -13.262773   7.371411
Bi   17.798968 -13.079014  22.676654
Cd  -21.943008  -6.501065   6.338520
Eu    0.134030 -17.928006 -13.978421
Si    9.603414 -30.113009   1.020349
Ta  -16.033177  -6.692686   4.664328
S   -16.191486 -18.479432  -8.820273
H   -27.406098  18.668999   1.343171
K     4.306849   2.710448   6.564381
K    10.096862   2.206442  15.884370
F    24.335916  -4.726312  -4.303276
Tb   22.672517   9.157621  20.502323
Cd  -10.390393  19.087747  18.330012
Ti  -20.316024   4.393989 -16.612857
Ne   22.658711 -13.528078   2.105564
H    13.459494   5.764846  -3.627587
V     0.224713   7.471118 -10.815645
Lu  -24.163803  15.231079   9.175425
P   -21.133357  21.050470  -6.129777
Cs    9.006718 -16.320072  11.438261
Ge    8.032694   4.392147  20.537148
Cl   -3.679801  23.586505 -21.693478
Cs  -10.146868  -9.800098  23.220050
Ne    6.893418  -6.236421 -13.152994
He   -2.096689 -22.423138  16.294398
Rn   -1.187362   1.968923 -33.092993
Cu  -15.120927  22.929861   1.599173
Ni   -8.436939 -14.624628  -3.154469
K     8.127914 -20.477555 -17.248557
Be  -18.742666   5.649870  22.876234
Li   -9.647681  -2.776742 -20.793975
Mn   -6.426815 -23.600885  21.860710
Pm   16.690855   4.215061  22.138241
Co   -0.419498  16.315597 -15.685067
Sr   20.138274  -8.728538  -1.788080
P    -1.552198 -28.678785  -9.429114
Os  -28.819290 -12.562787   1.772574
Ar   24.556858  -1.088347  17.715766
Na  -12.483607 -11.098360   5.582372
As   27.602385  12.915461  -0.312902
Co   -4.081428  25.708210  -4.048411
Tc  -25.553976   4.456593  14.144958
Co   26.133671 -13.777676   5.200949
C   -21.389943 -14.168718 -12.303052
Te    9.023113  -2.704932  17.485943
Ag  -28.920443   6.375222  10.945281
O    21.473585  -3.935522  16.145900
Rb   -4.191235  27.940912 -17.719416
Yb    5.074836  19.606173   2.296060
Ge   -1.004786  16.658331  28.875853
As  -13.371311 -16.663000  -7.399523
Cr  -15.949330  14.047297  22.568961
Si   10.913149  -0.628980  19.216932
Ir   -6.059888  15.652522   3.839782
Gd   -4.067208  17.793898 -10.343221
Co   26.848739   6.821084  14.407433
Ru   -2.903589   4.216292 -24.543679
Cl   25.409722  17.223255   7.071098
N     4.814605  -5.821972  17.079854
Zr   22.332630  -6.255423  14.922583
He   22.833841   6.048222  19.782302
Se   -0.655141   8.796200  15.160038
Ce  -23.706832   8.174591  -9.912762
Ru  -21.417089 -22.115840  -7.634145
Hg   -8.176959   6.436070 -23.342224
S    -4.491705   7.406597  20.189359
Cd   -6.312170  -1.971795  28.023446
Co    9.999857   9.076122  28.007143
Hg    1.619551  -9.865662  25.703931
Re    1.900203  -1.113605   3.013024
Sm   18.526652  -4.604031 -15.047370
O     0.430594   1.826699 -16.818650
Nd  -29.117165  10.380050   6.799278
La  -21.642012  -2.111768 -11.467299
Zn   -9.547495 -16.269680  -3.558347
La   10.043372  -9.589419  -3.993564
Lu    1.657959   0.775856  -6.470782
La   -1.505176  -0.334864  16.337180
Se    4.811377 -30.870014  -0.468171
Rh   -2.464783  11.475929   5.363321
Sb  -15.986078 -13.489119  -6.131848
Sn   -2.514028  13.330185 -22.371820
At   20.481344  -8.979324   5.287511
Ba   26.796879  -6.702954 -17.960724
Cl   11.354503 -24.708818 -10.492024
In    5.827565  17.992732 -25.905324
Au    6.326879  18.924157 -22.154456
Hf  -30.040970 -11.950551  -0.901557
Po   17.745306   8.843262  -8.583413
Mg    3.247492   4.107107  28.865724
N    -6.843588 -26.889379   8.027106
Tl    0.724580 -10.631428  -2.414105
Ho   13.776167 -15.799323   2.265811
Pt  -22.489784 -16.909659  -4.245106
K     5.146991  13.560883   7.931191
Te   -5.365049  15.952305  -5.560781
Tm   -0.520904  27.078750 -13.635566
Tb  -15.850221  -8.581365   4.073176
I   -14.123850 -19.219933  -6.112986
Ca  -21.224765  -2.018487  19.296079
Tm   -4.615720 -32.946244  -2.134490
Pr    6.461734 -21.470070  -1.837826
Co   14.335440 -27.317350  -8.846500
Al    2.141819  -3.622204  32.311676
Pt   11.310856 -10.603151 -28.552324
Ag  -22.868118  -0.136082  10.826121
Gd  -20.908843  -4.076552 -10.915870
S    14.529018  -1.683104   5.331540
Si  -21.350169  18.259489   9.360862
Nd   -8.193410 -10.539316 -28.342253
Yb   26.016010  19.560323  -1.045731
Cl  -22.606612 -10.821703  13.560905
Zr    5.541757   1.483630   6.882010
Eu  -18.711729  11.876381 -25.234923
I     0.417879 -19.297350  16.702154
V   -19.789198 -20.301274  -4.443407
At   13.966562  13.438783  -6.717313
Ba   11.593185 -16.332688  -4.845725
Pm    5.807725 -15.702371   7.377223
Gd    6.647008  -3.727796 -15.036229
Er   11.413503  15.174129  27.174220
Lu   -8.151004  16.071211  11.090204
Ca  -21.190400 -23.311695  -9.108041
Pb   -5.716726 -19.226193 -11.175930
Tc    4.584251 -19.533244   9.198615
Cu   -6.025987   1.629349   3.399192
Er    1.492856 -20.415143  -7.577498
Os    8.019464  -0.296635 -29.601494
In  -11.118330  24.202910 -13.918525
W     7.849899  -1.041105 -22.247272
At   -0.720510 -13.308895 -10.298243
Sn   16.414594   2.190390 -16.550221
Ti  -19.458616  -0.869823   2.625117
Sc  -16.610111   8.517548 -18.876437
Ne  -30.416369  -7.188477  -2.042692
Mg   -7.969129  -1.542800  25.065742
B     8.387417  -3.596222  12.028260
Mn   28.779430  10.263011   3.058565
Cs  -26.967163  17.590668  -1.974831
Hf   -0.752643   4.910285  -8.520873
Hg   18.070131   4.330196 -20.673355
Mo  -18.936780 -24.436366  11.832374
Nb  -22.657350   5.829602  23.785800
Ru   -8.344021  -2.280118 -13.927663
Mo   18.509344   3.233957 -15.864911
Os   15.017727 -11.985295 -11.351939
Ga   -1.269076 -17.121446  -9.311841
Re   -0.474801  -5.616401  -6.617137
Zr   -4.192389  25.072584  14.053796
Dy   22.972822 -19.492502   0.212468
Rn   -7.998358 -16.919290  19.622873
Lu   11.900453   7.642485 -20.594171
Tb   22.936239  -5.828072  23.775983
Be   -3.828849 -16.907881  27.225303
Ga   -1.678995  -9.695821  28.157815
Mo   -7.733035 -14.411363 -28.439070
Mo    3.678023  -6.012018  -0.463710
O     4.028527 -13.683924  18.911368
Ir  -20.737951  11.654002  13.295733
S     4.738007 -27.089306  -5.724776
Ag   28.396177  -4.082432   5.361977
Sb   14.399833 -13.935239  -4.340098
Xe  -20.304162 -12.408491  -8.700228
Pt   12.277324  29.214051   5.550718
Al   -4.798942   9.184749  18.527228
Pb   19.058471  16.735562   0.789148
K   -24.504539   7.945603   5.393821
Cu    8.762464  17.342537  10.989888
Yb   19.170024 -23.113345   0.089230
Pt  -12.786891 -23.128458   1.774997
Cr    4.978595  18.319899   6.040843
As   20.705576  -7.658071  16.841775
La  -12.382445 -14.139743  -3.283417
K    15.913537   8.024304  26.025027
Cr  -18.423370  21.011224  -0.873290
Cr  -12.774099  20.618402 -17.381963
Ni  -15.482139 -13.563455 -21.696102
P    24.428157 -22.679548  -3.052059
Ni    2.570572   9.212853 -13.312626
Fe  -22.192701   4.460233  13.893270
Sr   -8.822117  -0.006568  21.851392
F   -28.171490  16.602614  -2.156628
P    11.488690 -18.025007 -19.393752
Na    5.642336 -29.225281  -8.246863
Rn   -5.995359 -16.133676 -24.835603
O    13.015761  10.083448  -9.807547
Cs   18.386019 -14.817964   3.553278
Er   27.991471  -6.916330  -2.031607
Fe  -11.031744 -19.776722  -7.255652
Na   20.740321 -20.702896  10.157029
Ho   21.974060   6.720003  -4.329602
Te    3.958577   9.640109  21.874728
Gd   17.128201  16.987714   6.346565
Ir    2.196016  12.925819 -18.844265
Os   23.830566 -12.136335  -6.252407
Te    4.700792 -14.400003  -1.765562
Er   16.719179 -16.973297 -19.317340
Gd   -5.764346 -12.649283  -8.347248
Zr  -11.413110  -7.619448  12.394210
As   18.145909  13.620604   5.128367
Ho  -31.207435  -4.784197  -2.304763
Na    3.156514   7.459061  13.726045
Y    23.968742  15.561608  12.229330
Nb    5.934274  -4.797963 -26.348467
P     0.850017   0.376841   0.717199
Bi  -22.332796 -15.429658  -7.444975
Xe  -18.324817 -20.311041  -1.665026
Rn   18.999759   6.377105  10.397121
Ne   -7.343021 -22.676178   8.840940
O   -18.375178  -7.224442  15.854364
Er  -11.853771  22.096744  -8.681624
Ag   -7.286440  24.916643  -1.659766
Si    5.328360  -0.960446   8.779477
He   13.915752  19.000606   4.335332
Mg   17.163760 -16.652124 -15.170322
Au    7.320331 -23.452905   4.718651
Ba   -7.846147   7.546711  24.683370
Pd   -2.036827  15.387497   8.242208
Dy  -25.729652  -6.064266 -18.049145
Ge   -2.116313  10.078188   9.948695
Dy    9.612458 -11.578968   1.762788
Rh   -2.905760   2.118028  15.660339
Pd   -8.621356   7.770296  15.568635
Rh   15.458039  18.609413 -16.586649
Fe  -18.183661  13.541212 -14.408106
Eu   20.177690 -16.939008 -15.789658
V   -20.502355   7.784087  17.634273
Zr  -15.904860  18.701746   7.381666
S    -4.788966  27.681342 -12.141764
Lu  -14.457364   7.006382 -19.865687
Ar    1.366177 -23.058331  11.112243
Ni    8.747791   5.556787 -24.545885
Ge  -15.734205  20.229653 -12.961328
Eu   16.985059  -3.932327  21.183428
S    -8.245446  11.181575  29.711741
Ga    1.867961   3.636900 -28.306961
Tm    9.281603 -14.820645 -25.175089
P   -26.443071  17.067540  -1.219987
At    7.194978  12.485026 -23.072107
Re  -10.727046  11.543593   7.049910
K    15.352592   4.904043   6.483034
Cs  -29.229543  11.365116   7.081649
Ne   -3.565963  22.621072  18.414517
Mg   -3.586519 -16.976212  -9.571981
Pd  -11.839861 -30.561954   0.090548
In    6.375134  -6.452772  13.644663
Sr  -12.103313  18.544523  15.275319
V    -4.498991 -15.980838  -1.657883
Li    7.638910 -24.928142  -4.237888
Sc    8.657161  14.045502 -17.842847
Be    1.034934  -6.651797  17.132719
Re   16.290060  10.439057  16.886870
He   12.181773   4.413048  30.629941
B    -4.168994   7.051693  -5.831596
Mg   15.909241  -4.634777   5.169363
Ce    5.013844 -30.492579   4.682284
Ta   12.080405  15.614845 -19.766415
As  -11.074416  18.458300  25.677788
Ru  -24.454948  -1.540358  13.054172
Ti    7.505436  16.106929  17.767134
Sn   18.166421  12.845050  22.458732
Ho   -9.001506  31.798127   3.173656
Ni    8.245471  20.231366   6.844017
Se    4.064430  -8.441441  23.144497
Lu   21.730220  -5.942092  21.334193
K    30.637857 -11.380960   5.633658
Pt  -21.916895   9.615588  -9.464758
In   18.594945   4.915660 -18.903533
Cd  -10.268275  -2.127879 -20.471933
Ir   30.076265  -5.387946  -2.583840
Ca   -2.798190 -31.366845   3.294187
N   -10.661001  23.350784 -14.857575
F    29.149353  -7.229321  -8.644583
Ne    3.212293 -15.951998 -14.477655
Ce   11.862550  19.465218 -14.273844
As   10.612603 -30.090529  -3.790105
O   -15.338282   6.218395 -25.524863
W     1.665438 -19.346742 -16.868587
Tm    9.832164 -23.836284  19.867177
Cl   -7.576206 -11.019440 -30.902330
Er   16.462633  -9.930453  27.336438
Kr    6.678766   7.645183 -12.141645
Eu  -10.200793   8.957996 -16.716956
Pt    6.567018   6.105710   9.520452
Se   16.822902 -18.594179  21.790701
Er    5.897989   0.980048  15.184303
At   10.598155  -5.847238  21.674890
Cs  -19.930929 -16.661569  10.970442
Na   18.714527 -21.457108   9.460090
K    -3.965431  -5.507680 -20.527202
Pm   -4.778377  13.605620   3.290023
In   11.782891 -22.006111 -12.889058
Po  -14.784349  17.408230 -18.196122
Sb   -3.609227   6.342565  30.579817
In   24.497854  -0.055793  -6.148620
Ho   26.314316   1.294487   5.650077
Sr   -0.862157  17.616963  21.531336
Zn   11.373538   2.742321 -15.252675
Ta   13.881230 -23.433495 -17.246282
Mo  -11.846674  -7.359859 -20.279155
Mn   13.528076  -1.764669 -29.431283
Be  -15.782758  -0.273829   8.426609
Ta   13.979575  13.656450  24.884210
Pm   -5.167576   7.390495 -19.497879
Sm    1.331989  -3.583831  16.900733
Ru   30.124939  12.527737   4.301797
F     3.554640   0.055041  20.478344
Si   -1.524351 -11.429831 -24.042559
Cl  -17.314474  12.296655   3.556975
Sn   16.882197  18.776642  15.226114
In  -14.633117  11.133372  24.692525
Nb    0.852548  -2.123604  -7.551314
Ti   31.025242   2.808106   2.566764
Li   -2.108168   1.141306  11.358869
As   22.234797 -20.777955 -13.032031
Cr    7.355270  28.476694   4.680723
Be   16.927077 -11.845808 -23.462789
Ir   -4.361582  -9.492642  24.899708
Kr   26.212058  10.197516   0.070495
Zn   -9.045953  12.193391 -18.606195
Mo   21.801677  -0.378046 -11.509047
Ga  -19.062057 -17.110107  20.345366
Cs   -5.781507   4.649246  20.375008
Ne   -2.149341 -23.117113 -22.019265
Au    6.261488 -18.272698  -7.871092
Zn   -6.253079 -12.001858  11.691272
O    11.751228 -13.869205   7.881662
Ar  -13.669451   5.397512 -14.574684
Ni   12.790684  10.124107   5.475763
Bi  -11.455886  16.441748   3.733604
Mo   -4.778763 -13.300383  14.305847
Ar    4.466199  24.644243  -7.654940
F    19.764884   4.092368  -2.146128
Zn  -30.445076 -12.167214  -6.914423
Ar  -13.623068 -13.625263  25.507514
Fe   -4.927352   8.638974  26.385072
Sn   22.443829  16.294339   9.618332
Y   -27.375423  -2.594408  18.654439
W     4.671802  11.468613 -26.300008
Ar   -2.334695  30.610489  -4.003496
He    3.469181   9.073214 -21.170143
Cs   24.417209  16.297194   9.771793
I    18.424686  26.400147  -3.281483
Tb   -7.560112  -2.869007  31.133436
Tc  -16.532154  -4.860451  -7.308532
Br   11.598415  18.696967 -15.014518
S   -18.231318  18.430763  -8.858932
Dy   21.802793   4.026423  -3.173561
Na   -0.496384  -4.739947  33.045513
Rh   -0.500384 -28.348033   1.361783
Li   26.495206 -13.236963   2.719867
Cr  -18.693994 -16.580269 -21.624176
Fe   -8.646313 -16.773129  -4.707258
Y     8.995161  13.731210 -11.854580
Li   12.308066  -3.029026 -13.743344
Tc  -14.614041 -24.459849  14.057029
Cs   22.175224   9.414516 -10.598148
Er    6.639776  16.803072  -5.666140
Re   -8.713186  16.255970  -4.261272
Cr    0.084403  -8.922806 -19.221541
Sr    7.674442   9.372759  -8.523761
Cu   16.827314  -8.926453   6.096676
Sr  -12.354691  -3.725196 -21.507738
Nd   -6.266299 -28.076866  16.178464
Tm  -31.236124   4.439250  -5.969713
Au   -6.279019  12.695819 -18.737431
Mn   10.474038 -26.609519   9.605192
Be  -19.026430   3.721010  11.448395
Rh  -22.456110   7.065650   0.950813
Be  -11.483109  -0.180351  11.423108
In  -17.986665 -10.175623   1.882993
Al    1.583724 -31.583319  -8.931531
Pm  -20.281517  -8.316464   8.463200
Ag  -30.149404  -4.775718   8.209346
O    10.337049 -16.763874   1.419989
Cr   23.182197 -13.782842 -18.325846
Se   -8.331278  15.711091   0.909701
Ho   15.189678 -24.324253   4.040920
Cs  -17.278933  25.714936  -6.200886
Eu    9.960605  21.660891  21.931323
Be    3.826873  -1.376481   1.727293
Si  -11.391708 -17.483867 -13.924086
F    30.545572  -9.584365   3.837975
Mo   13.246151  14.490778  -4.965413
Nb  -20.048695 -24.225385   8.798997
Sb    5.967997   3.379741 -22.240981
Nd  -23.342983 -17.283315  -3.150620
H    -3.899191  19.085497  -5.047908
Cs   10.272852   5.448751  23.922002
Be  -13.820972 -14.703684   0.020209
Rn    5.872059 -19.960969  -8.898239
Mg  -15.311410   2.865898  -2.069095
Ta  -14.066247   6.745759  24.949447
Xe   21.937882  12.196315  16.725254
Mg   15.897063  -1.545671 -17.390006
Sb   -8.572572  18.254290   1.489701
Nd   18.234325  -2.214129 -27.840990
Ni    6.166566 -15.334750  26.577534
Pt   21.680888   7.276567 -17.272647
Sm  -12.977664  -9.674615  19.404257
Sb   -4.762946 -14.280732 -15.260986
S    -3.542926 -10.235341  -8.310700
Cu  -13.728369  26.091382   2.758853
Zr   11.871809  -5.559449  -2.331107
Sb    0.212777  15.230494  23.279352
Ru    5.470769  -6.304469  31.806837
Br   21.677387  16.416242  -9.481094
N   -10.928586   2.783159 -23.387601
H   -11.326473  25.940529  -2.499600
W   -31.395654  -5.706546  -1.460072
Ge    8.486346   2.696329   2.927325
Cu   19.358680  -3.604307  18.335747
Sn   17.308976  10.408278 -15.950557
Cr  -15.702406  -5.699659  19.112056
O    -2.316229  11.967708  26.162432
At  -24.526264   1.178604  -9.628765
Y    15.482492   4.637705  -2.233999
Os   -2.990544   0.942926 -20.560017
Rn  -24.346589  -6.512454 -18.376806
Y     3.360407  24.335269  12.613816
Ba   29.965469 -13.279972  -7.406161
Os  -20.722971  -9.913281 -15.160278
Nb    1.875519 -29.727600  -2.724928
In  -10.437746  13.552367 -13.079958
P   -27.066148 -12.539167  -0.118384
Zr   11.136271   4.187914 -27.133043
P    18.403261 -17.819943   1.555340
Ti   -3.400287  -2.771595   8.979039
Tm   -1.868875   5.589403  30.333387
Bi    8.688664 -28.371940  -8.820851
Tb   -0.601596  -4.575524 -11.576209
Rn   13.689344  11.393678 -26.849888
Dy  -13.741962  18.089012  -5.067241
H   -18.140876 -19.034989  -4.470119
Ca   13.996945  10.576070  16.594673
Br  -12.686934  -9.912025  -1.473374
Cd   29.781517   6.171045  11.819122
Te   18.051816  -2.747413   8.956277
Xe   -9.595923  18.081076 -21.873761
Na   -2.813735  11.105760   0.897100
As    7.772319  14.904135 -25.151519
Si  -13.952295 -28.624787  -5.325130
Po    1.684262  25.435831  12.024847
La    5.220900  10.038362   4.967333
Ta   15.729276   7.820768 -25.552345
Li   13.417924   7.192447  -0.518521
Sc    9.329267  19.569139   4.193363
Mn   -1.132338  25.787371  17.087921
Tc  -21.013928  23.001143   5.460505
Au   -4.526160  -0.619607  31.328680
Be   19.585526 -11.922205   9.652259
He  -32.181783   2.983542   7.103905
K   -13.506381  -0.972321  -5.355136
P    12.203901   0.303246 -24.449957
Pd    6.846639   0.394717  -8.571668
Tc   25.434224 -13.395526  14.570845
Pb    0.492059  20.756557   9.328026
Cs   18.023561  22.946648 -13.568998
La   12.115092  -3.551135   8.266325
Tb   -5.492403 -23.827838  -7.087440
Er   -6.743690   1.719819  16.468949
Sc    9.742457 -21.533262  23.201596
V    -1.052680 -11.155439 -15.884467
Kr   -2.527990  16.673456 -22.569147
Tc  -12.308952  27.864550   1.238093
Nb   24.355496 -14.485733  16.145848
Rb   -9.204957   1.653322  24.579132
Pd  -10.836147  20.180108  17.980803
Ni   19.797715  16.347149  -9.754502
La   -4.165758  -7.285928 -31.563007
At    8.339872   6.359802  30.918124
Mn   19.563455  21.854575 -15.362761
Tb    3.018502 -18.200886   0.007462
Ge   22.944738  -2.069910 -20.139829
Rh   -0.819537  -2.023661 -23.433889
Hg    9.635337  27.313841 -14.900501
Ce    0.734292  -9.444695  18.108854
Mg  -17.562650  19.042730  10.803362
Xe   20.498814  -9.555460  -6.698379
C    10.663596  30.553574   8.755479
Be    8.369792  14.243134  26.031809
In   13.455602  20.775102   5.846150
Gd   -8.619476 -21.124350   5.701041
W   -12.427664  16.567565  26.539693
Mg   14.149856 -16.721503   5.150590
Er  -19.091410   5.865700 -17.454992
At    8.531082 -20.391468 -12.144972
Sm   25.676777   1.493853  16.002824
Ti   22.177345   4.955495   9.273653
Cu  -14.535642  -5.848415  -0.575070
Cr   -1.132402  -6.279400 -30.979939
In    5.331158  -5.355133   3.524967
N     5.274888  -2.664859  14.807442
Rh  -21.454951  -0.552897 -11.314659
Br    7.114979 -11.177834 -30.353831
P     3.525320   2.226655  17.727490
Os    3.126975 -27.267783 -14.631269
Ar   11.420063  12.125161 -26.477966
Tl    2.130144  -0.373411  -5.620714
Ba  -12.578317   9.245870  -4.522795
Ne   11.480089 -23.032126 -10.313175
At    9.792746   2.531955  -0.990795
Se   20.303599  18.081455   0.542104
Hg  -24.534793  16.914517  -3.246036
In   27.136151   4.907431   1.075654
Gd  -10.998765 -29.765786  10.419812
Eu   -5.498576  29.321710  -3.530860
Sr   12.773662   0.493511  -7.233448
Tb    4.016957 -30.952259 -11.806456
Be  -14.191871 -16.892534  11.706514
Dy    9.589731  19.842831  -4.396140
K   -23.295112 -19.671415  -9.947622
Ca  -24.852420   9.775035 -14.131750
Mn   22.302097   8.701482  10.763751
Eu   10.728198  11.595763  -6.573350
Ag   14.567813  10.237372  -0.416699
Er   -6.475929  -3.344949   7.605216
Ca   16.736745  -5.026923  -2.971678
Ne    2.706080 -20.752337  10.617771
Cr  -21.133707  -5.512374  14.080287
Mo   22.076373  18.588143   9.458771
As  -16.285508   3.969882  28.028536
Eu    0.469634   2.287515  -8.514366
Cu  -17.559540  -6.514907  -3.596622
Mn   31.264408 -10.510809  -0.781806
Ne  -10.877704 -27.680228  15.435720
Te   -0.152818   4.124455 -19.983500
B     4.222745   7.032382  23.203307
Fe   -3.643187 -27.659027 -16.816201
Ge    4.222069  -7.465666  30.366332
Be   20.240859 -11.718661 -18.691477
Er   -8.070422  23.730622  19.102335
H    -5.139217 -17.073885  11.259731
Br   -2.989183 -16.906778 -15.342075
Ce  -22.335982  16.115247  15.284998
Si  -12.160769   1.241007  10.237235
H    -9.257632   4.685937 -12.089475
Ru   -8.783459  14.445168 -27.098060
Sm    6.448487  11.368752   9.440921
Eu  -22.493053   4.709535   6.339390
O   -25.440931   7.510303  13.225887
Fe  -15.378409 -24.296513  -5.201838
Mg  -23.479716   5.278721  -6.545360
Ga   -4.240013  10.706753  20.723918
Hg   12.384728 -13.705344  16.468785
Al  -25.190750  -4.061340  -3.384889
Na  -27.849258  -7.655151   8.532509
Ta    9.005267  -6.650237 -12.130228
La    0.561039  -1.670799  23.072063
Sr  -13.473243  28.632778  -2.306341
Ru   -7.419561 -23.567026   0.325301
Te   11.071756  -8.369805  23.800707
B     9.167217  -8.192065 -11.837573
Na  -20.509956   9.225514 -16.093117
Cs    0.243901   9.403946 -27.252071
C    -7.044289 -23.950315  -8.120087
Nd  -25.492343   9.063853  -9.401740
Pm   -8.005707  13.136305  -0.867696
Mg   28.891795  -8.800660  13.333620
Kr    1.673147 -14.867730 -14.582721
Ru  -15.127958   4.092176  -6.864012
N     0.076408  19.769434 -19.880726
N   -22.311125 -13.095216 -12.397950
I     7.577752  14.992887  10.217217
Sn    3.206442  10.597701 -27.760208
Rh    2.022703  18.267223  27.537763
Rb  -11.229474 -20.695306  23.809072
Cl    4.634458  18.164348  19.354684
Y    15.136940  16.513044  16.866484
Cl  -17.943480  -3.568079  10.761482
Os   23.060924 -14.240170   9.615761
Pr   14.908202   0.660435 -18.421353
N    20.948670 -15.663220  14.068617
O    25.829460  12.174541  12.287425
Be   -1.129224   4.274958  23.936586
Li    3.761848   9.362602 -22.034328
Cu  -26.001941  13.711525   0.923239
S    13.916648  12.786693 -23.264683
Cr  -14.464254   4.373237  21.919518
Ir  -27.865559 -17.681025  -6.615234
Cd  -25.922267 -16.144148   9.397869
Kr  -10.504264  18.138557   5.925923
P     4.610457   9.426436  -4.691022
Sb   14.216046 -16.621653  19.122030
Nd  -19.986996  15.702770  17.659249
Te    7.725769  -0.368661  30.599664
Fe    2.049051  26.226249 -13.229864
Ta    6.407856   4.492155   0.243551
Tb    1.973694 -24.468213 -20.291604
Sm    7.552113  -9.237791  25.665662
Re    7.116980 -14.217336 -23.982525
Mn    0.038364 -11.336433  -7.383453
K    -2.953013  20.872552   3.126709
Ga    8.013406 -18.405153  -6.520085
K    -7.026800 -26.355406   6.495657
Dy   -0.674007  -7.439038 -19.527443
Dy  -17.312445 -13.178429  12.994413
Pm   -7.755618   4.683987  22.785649
Cl    6.606564 -13.037606 -10.710262
Ne  -10.050358  13.022798   3.023395
Ru  -19.790024   2.957682  -2.276118
Mg   29.566899  -6.489162   4.850769
Lu   12.254056 -29.906028  -4.521754
Al   10.267095  24.099285  -6.374502
Ga   18.459208 -14.136791  11.883462
Hg  -17.627550 -13.518111 -13.985011
Te  -28.703079   4.794028   1.083609
At    0.831540 -19.789367   5.343282
K    28.945556  -0.639815  -1.433997
Cr   12.029117  16.907833  -7.306125
Ga  -13.781074   4.936868   3.930675
Bi    2.664106 -19.568675  26.365176
Na    2.767382   5.325769 -23.180486
I    -3.595318  -8.785949 -20.514689
V   -29.056136   9.466596  13.636184
Pt    3.905329  26.505441  -7.911893
Ag  -21.889455  -3.321782  15.325448
Te  -21.088753  10.163066   1.331378
Sc    9.472378  13.362505  -1.920829
Tb   -7.226195   1.590911 -11.330819
S    29.899794  -7.089300  13.065886
Bi   -5.564157  10.283895  21.681077
Ne  -10.166174  18.062455  -2.606546
Pr    5.498449 -20.364348  -8.262911
F   -21.930686  -8.808148 -19.492144
Tc  -26.218987 -10.141825   5.532772
C     5.437449  -8.804835  12.245986
Sn    0.809018   9.206688  21.453460
Mo    9.395481  18.300892 -10.293375
Ar   -1.967644   8.632727 -16.503075
Rb    6.489799 -26.577676  11.206040
Au  -15.338971   2.189096  27.013440
Au   -2.748424   9.861996   7.934960
As   17.689289  -2.605476  -7.013879
La  -10.986790 -13.088003 -19.960619
Hf   14.516976 -10.846894  -7.625350
Eu  -25.845368  11.907653   9.438128
Mg   13.303008   9.419095   1.542021
Se   -9.875955  18.260925  19.544498
Eu   20.927630 -12.797643 -15.163269
Yb  -23.522051  11.682746  -3.896760
Fe    5.518298  27.070608  -7.620583
Cd   -8.713295  20.415190  23.322487
Rb   -1.049629 -27.643220 -12.300377
Te  -15.790398   7.272990 -13.569180
Pm   20.660191  -4.406274 -20.165942
Ag   -9.677470  23.108953   3.997906
Sn  -20.989862  12.792146  10.382335
Cs    4.118252 -24.550540   1.550413
Hg   27.167445   3.742642  -6.923610
Cu    8.938704 -12.941831  14.961940
Sm   16.846263  16.211119  23.490822
Al  -15.662586  24.851966   5.889956
Ca    6.930703 -30.502227  -4.780861
As  -24.803423   3.498203   5.486410
Au   -0.320102  25.855403  -1.523724
V    29.636917  -1.618650  14.826018
La  -16.149494  -3.211226 -17.417216
Eu   -2.917612   4.666937 -21.252307
Kr  -17.970241 -21.963101  14.869780
H    30.975030   6.887322   1.969989
Rb    3.544310   5.798932   9.030707
Kr    1.946291  25.753176 -14.827833
Mo   13.384245   7.167997  25.838423
Cl  -21.621325  10.170993 -13.242183
At    3.887917  14.641737  29.124200
Ce  -17.509582  28.258144  -0.030632
Zn   11.000637   3.336892 -25.324462
Co   16.166690  15.257854 -20.964311
Se  -13.136899  15.237525  -5.257371
Nb   27.768707   9.908921  -4.620064
Pr   11.260986 -22.163917   9.510030
Mg   18.417738  27.416466  -4.458083
Cs   -7.449436  -8.315976 -16.623877
Ni  -19.184553   4.470722 -19.655581
Be   16.040468   6.316145 -26.698495
Ba   13.800075 -22.071646  -9.236125
Hg   18.073066  -7.717594 -17.589086
Br   26.737352   4.826218 -10.173807
Sb   20.579491  -4.745793 -14.581034
Ir    3.698931   4.282301 -10.706109
La   -2.932041  16.196205  16.102900
Si  -11.095836  21.902984 -13.508006
Al  -19.508713   9.942753 -13.711212
Cs   -3.695075 -10.845437 -22.320958
Ni   14.950356   0.667154   3.081962
P    -6.048900 -21.917745  13.676480
Ru   13.974984  -6.845770 -21.764404
Zn   -1.779590  16.945508  -4.062472
Ti   -9.674587  -9.516276  27.953032
Kr   13.097134  15.946605  -1.370372
Ca    6.630398  -7.538579  -2.167467
K    19.948957 -10.305015  22.001424
Pb  -15.909182 -13.879649  -3.471046
Ga    1.463602 -17.641573  16.511887
S    -6.393183  29.426791  -6.059507
Ag    7.076952 -29.787862   7.958709
Sb  -23.212363 -11.985122  -6.322759
W    -5.184296 -12.338093   4.593328
Ir  -10.229372   4.105108  -5.835953
Zr  -10.889359  25.734079 -14.080761
Ar   -3.351580 -19.690063 -21.573936
Sm  -12.797400  21.391954  -9.915654
Po  -20.657460  15.893835  -8.216188
La    6.990796  24.596642   2.735154
Pd   14.152055  27.944105  -1.625850
Ag   18.463829  -6.634007  -8.074308
Be   -2.754407 -12.486149  13.502975
Er    7.695906  26.281056   5.694600
Co   14.195634 -22.696498   4.836869
Nd   17.578366  15.339636  -3.761908
Pr  -15.424360   0.385533 -12.619535
Fe   -1.555823  21.227272  23.805165
Yb   -1.796728 -15.850503   4.013714
Pm   -3.369010  -1.401985  -7.107923
Ce   15.606075  -7.376742  18.042832
Be   21.668653  -2.815794  21.555016
F   -15.787271  11.983488  16.379593
Cd  -17.450476   1.218519 -25.163299
Ge   28.330706  -9.766607 -10.467064
Lu  -13.573493  17.146945  24.477979
Cr  -12.737035  -9.131358   9.186612
Yb   -2.215742 -10.565460 -21.977680
Si   19.381878  -0.055653 -20.967089
Yb   -0.678934 -19.594019   3.695013
Pd  -23.863633  -5.892819 -10.429219
Dy   -9.779768 -31.442865  -1.287751
Se  -27.812983   6.489650   9.666312
Fe   20.117584  16.047918  -0.162767
F   -12.568001   9.334163   9.946366
Hg   -0.337649 -31.754517  -1.884680
Ce    7.547048 -27.995015   9.124882
Gd  -17.471354  -5.138651   7.395430
Sc   -9.944045 -18.691528  -0.340862
Ag  -12.189889  22.069481  -3.888609
Be   28.089604   9.576138   2.992789
Pb   24.644976 -22.603055   1.645841
Sb  -25.758023   9.490310   2.151788
Mo   -4.988285  10.367692  31.116234
Rn   17.486811  -9.881715  17.651813
Cr   16.749778  21.215131   9.748680
F    24.976304 -15.436242   5.872682
Ba  -19.189741   2.261030 -19.155813
Ni   16.087639  -0.842821   7.235120
Er   -2.751527  -6.304741 -30.369928
Nb   -9.257393  -3.507803   5.819986
O    19.778958  -9.412273  20.543749
Zr   -0.024031  22.248464  14.976308
Be  -26.932354  15.023303  -3.288358
In   -9.418337 -15.573363  -0.499415
Ho  -14.787072  22.805261 -13.027152
Cu  -26.855052  -8.734519  10.824223
Ga   -4.129906   8.169503 -30.613503
Kr   -0.668661  -6.545244  -7.036961
Cd   -3.157151  27.734839  12.124960
Te   10.129248  -5.530287   5.763222
Mn   19.803221  24.345723   0.045009
Co   -5.627427   9.769055 -26.013450
As  -27.047131   7.481275 -13.063975
Sm  -19.838552   8.974021 -14.440671
I   -19.267158  12.564898 -15.054833
Hf   16.577732 -11.185537  10.724188
In   -5.068915   1.647348 -14.130185
Lu   10.768798 -15.892885 -19.607094
Nb    3.279628  -8.143700  27.525399
Tc  -12.646787  17.113388   4.811769
Ho   -0.809936   5.915559 -23.670013
S   -11.791360  12.939111  11.875936
Rh    6.953351 -28.277806   3.399758
Au   -0.272978   4.699874  -0.113630
Mn    7.067282 -10.118810  15.759369
Nd  -28.255974 -12.337061   0.193426
Cs   15.044580  17.348107  -5.166989
Pm  -11.631911 -22.435220  17.402288
Ca    4.698814  -5.687343  19.175257
Ge  -19.211984  19.558388 -17.083308
Pt    5.533033   6.052163  30.739876
In   14.427688 -13.906604  17.223705
Nb   14.026924  11.113755 -22.655990
Hf   -7.588400  -1.531321 -15.921543
Ni   -7.641902  -9.592822  30.898870
Tm   -5.810645  27.969701  -8.732215
Ar  -24.682447  -8.496149  18.482343
Pt  -21.317794   0.777299   5.590306
Tb   -4.267499  -2.490680   1.685184
Co    1.661924  -9.795820   3.670352
Na   16.731463  16.626661  -3.185399
Ti  -17.114085   3.478371  -6.577777
Sc  -24.570716  -6.804459  13.549759
S    13.273281  20.068029   1.780127
Re   -5.992720  -0.212657 -30.554820
Os    8.080075   7.291111  14.153737
Ce  -22.092039 -13.711458  -1.751103
Ce   17.331672   0.219032 -13.330186
La  -26.323487  -6.914963   1.118074
F    12.179946  -4.083365 -10.981752
Mn   10.478856 -10.661865 -12.863332
Eu    4.851382  29.858233   9.554679
Pd   16.108059   0.991962  16.871122
Pb   30.640336  -6.773473   8.840234
As  -22.745074  23.682734  -2.874885
I   -23.875919  -0.032473 -19.188377
Ir    9.676942 -18.185620 -15.064813
Si  -20.982207   4.261764   8.348684
Te   12.611020 -22.735038   0.658636
Sb  -18.228499  15.609130   0.745808
Ne   -4.338281 -26.178277   9.903940
Si    6.849985 -29.224023 -13.869719
Rh    0.429369  -2.578856  33.532028
Kr   10.705065 -12.489176   9.233017
Ag  -21.615307 -18.691567 -15.457271
Ti    0.617831 -17.800573  14.006603
Re   15.620264  12.958998 -17.070202
Lu    4.418104  -7.367660  -5.268517
Co  -23.335093   9.757128  -0.275498
Cd   13.165089  -4.286376  30.485839
Tm   -8.502372  -8.459657   1.452316
Eu  -15.269667 -13.222784   3.860089
Cl  -16.980625 -14.079283 -22.329271
Zn   17.268883 -21.733104  12.022516
Pr   -4.596432  -1.577509  -9.658197
Ag    9.652799 -27.910030   2.616997
Os  -20.111432  10.506119 -20.981007
Sc   21.877392  11.149397 -20.537822
Nb   15.651343   0.879016 -12.164116
Se  -15.754948  -6.100779 -15.674656
Zn    9.948359  -1.628104   5.731792
In  -12.600275   3.189541   9.513180
Os   -4.310861  11.355894 -25.906938
Ge   -3.246227  31.024442   9.601322
Mg   18.321045 -11.685796  -7.006042
Cd    2.753360 -22.511966  14.500547
Mg    6.810590   4.441145  22.834595
At   16.272493  10.145223 -24.734240
Zr  -23.794172 -13.402135  -7.624429
Rh  -16.549345   0.226251  27.905468
Ta  -13.933971  17.419261  -8.426203
Mo  -15.547921 -11.099746  -1.027136
Xe  -10.855325 -17.024018  15.690990
Sc  -12.120579   6.461851 -16.480021
Re   18.294695 -10.060658  18.868364
C    -3.702403 -29.717237  -4.411691
Mo   19.381822  13.522517 -12.190213
K   -27.339794 -11.820525  -7.706579
Eu   -0.533790  -8.608423  29.136695
C    12.403397  19.866166 -19.484488
Eu   13.703492  -6.957925   4.279995
Po    4.185791  -7.780637  12.609290
Te   10.430383 -25.162111  -0.389457
Tb  -17.404087  -4.950873 -28.213114
Na  -18.989192 -25.079238  -3.677046
Pb   29.366312  14.428749   7.898836
Sn   19.401831  -7.512432  -7.468540
Eu  -11.221649  15.662982  17.152655
Cu  -14.954131  15.033996 -22.904699
Hf    1.556305 -12.426906  10.834461
Sr   14.714241   2.732927  -0.125189
As  -27.963231  -6.155683  -5.129410
Eu   28.285124  11.791993 -11.358279
K    -8.398547 -26.805295 -15.179888
Er   23.605216  15.186365  13.770651
Ca    2.443577  29.645476  12.933992
Tb   -3.637898  -5.558415  20.896090
Bi    9.378214 -28.064043   8.327305
Ru    4.099937  -6.449890 -15.446284
B   -13.969969   5.446387 -16.368040
I    13.091640 -11.262435  15.710461
Xe    6.052111  -4.418177  -4.565741
Pb  -28.649177  -2.074605   4.120304
O   -21.106208 -22.097034   2.365554
Rh   26.973717  -4.638346  -3.759739
Xe   -3.046484 -25.782906 -13.744141
Br  -15.922014 -14.671728  19.042071
Gd   -9.020466  28.594379  13.211503
Sc   -6.273137  26.092287  15.712984
Ti   -1.870336 -28.419052 -15.637475
I     7.164689 -24.285430  -2.285775
Cr   -1.523757 -25.056900 -16.670573
Kr    8.060985   8.319669  29.930361
Ir    1.336345  11.160005 -14.324672
Al  -10.515415  -7.967875  26.797881
Mg    1.868001   8.439069 -28.546148
Re   -8.600649 -20.057281  -1.030212
W   -13.214779   8.973273  -1.304312
S   -26.790645  10.561371   0.815717
Zn   -2.929120 -18.550003  20.024591
Cl   23.185727  15.767576  12.863876
Gd   22.101389  -2.969670 -12.926602
Al   -8.855479 -10.385901  -2.808962
Be  -28.460218   9.321671   6.460388
Rb   -7.267582  25.729631  -8.529878
Zn  -22.431566   9.496043   3.533606
Se   25.785667   9.277568  12.502981
Ho    2.415932  -2.228310   7.426841
Yb   29.308358   6.843293  -6.438026
B    32.992238  -0.636838  -0.269524
F     0.771906  -2.057745  16.714644
Zr    0.552862 -18.709630  -0.681283
Li    3.440845  -3.329801 -10.672054
Bi   -3.790958 -25.324348 -19.441282
Hf    2.861318 -17.394682  22.665354
Na   -6.427090  19.585961  -5.816533
Ag   24.493305  -3.387462   9.607647
Ca    1.918209  -9.096204  -9.119483
Ga    0.433721 -18.146041 -21.079134
Pm   12.050523   7.680333 -26.888582
Na  -11.242048 -21.856474  -6.848063
At   16.632943  14.411289   7.062481
Tb  -20.057052  -8.422669 -11.361639
Sr  -24.864437   9.891587   2.089511
Yb    1.910756  26.670239  -8.977260
Na  -12.976332   2.759165 -19.379381
Tb    8.620120   5.462947  -4.692056
He  -28.930334   3.748491   0.561893
Pm  -18.465487  -1.284053  21.100437
Cl    0.442524   9.385507  20.436389
Ce   25.021978 -18.184785   0.662040
Ir   20.517269  -2.620547  23.787761
Ge  -15.890819   8.649212   5.558800
Ce    4.286296  26.207742   2.878240
P    -1.661690  27.187982  -8.234622
Cr  -19.760730  14.879074   3.660471
Se   -3.219461 -13.358774 -11.870542
Sm   15.045352  -8.381185 -18.091925
Tb   -8.789477  15.044306 -23.788660
Cd    1.312013  -5.335633   8.139893
B    24.124311   4.465065  18.790891
Ti   -3.521844   1.301563  -3.543724
Hf    0.804523  33.172781   3.662339
Ni  -31.368547   2.516437   7.568144
F   -12.368015 -10.690406 -12.076989
Co    7.763526   4.362576  -8.312015
Ba    3.913646  27.407560 -17.017523
Sm    7.960218 -26.042974 -15.147675
Ba   -4.539704 -22.651606  21.621467
Ca  -29.771771   8.719591  -2.711818
Sb   -7.164972  28.463374  14.980691
Nd   27.094405  -8.131427   9.843852
Cs  -16.775357  17.034640  16.317280
Ru   -7.991856   8.567554  -8.963305
Pb  -12.165013  13.187827   8.689838
Al    7.471260  19.539523   9.065218
Cr  -27.108068   0.204177  -3.324191
Ba  -16.719334 -27.843952   1.095290
N     9.025122  -1.336340  27.991603
W     5.119730  11.432691   4.084625
Cd    2.812480  -0.184662 -10.451680
B   -17.797223  -0.895847 -22.562241
Bi  -10.867104 -11.209809  14.341053
He    1.317972   5.225962 -32.699229
Se  -16.859022  -9.333885   8.451888
Ni    3.084140   0.615835 -31.155777
Pd  -16.607491  23.444728   2.968867
Cs   10.192161  -4.393117  23.332338
Pt   -2.937133 -11.057717  10.778038
Ga   -0.393701 -19.681439  19.400263
W    -1.616469  10.296335  27.781599
Ti   -2.160776   6.381626 -23.960023
Se  -21.769528 -20.460661  -6.909203
Pb   15.485900 -10.475588 -15.207772
O    -6.793703  21.114931  15.832118
Au  -22.400101   2.265986   8.098213
Ba   21.481340 -20.139140 -14.789252
Bi   15.870926  -4.041221   7.216401
V    -9.791711   5.498178  28.428294
Ca  -24.549851  -1.662063  21.983470
P     6.313027  -3.111695 -21.532940
Sm   -5.962644  -4.883768 -25.424558
Xe   -2.863041  -7.398762 -30.354695
Ce   21.439017 -15.059425 -12.482463
Si  -14.701365 -26.203146   2.705306
Dy   -1.787975   0.215432   6.054782
Te   24.262316 -14.535749  -8.902090
Au   22.969348   3.013825  10.665001
Mn   -5.561885  23.158785  19.499934
Bi  -12.222830  12.884610  -9.754172
Al  -12.478388   8.411034 -27.890155
Tb    6.223771 -26.016524  -7.720961
Re  -19.860373  24.897671   5.717823
Yb  -17.786208  -4.205804 -15.338601
H   -11.053505 -28.720901 -13.116822
Sc  -26.899586  -5.063203  -4.770185
Al   31.360696  -6.934716  -5.318254
Yb    1.683074 -17.320561  -5.214019
W    -6.957851   6.809935  -0.874480
K   -23.509125  -1.170419   3.671985
C   -16.677949   5.669408   1.510217
Hg    3.705710   5.171397  -0.474417
Pr   14.217914  18.211393 -20.590737
Ne  -16.456520 -18.001294   5.273270
Hf   20.263252  -0.508707 -21.612253
W    22.312995  24.794775  -1.508884
Sm   -8.803933 -20.607456  -7.735104
V     1.822011  32.470168  -4.439430
Bi    1.723859  11.855293  -8.257798
Cs  -17.812071  20.905224   7.936462
At  -25.314759  -1.042587 -12.972074
Be  -12.404890 -17.849204   6.370012
Nb    8.330553  11.866413  -5.634400
Ir  -24.409155 -16.847482  -5.121350
B    13.515023   0.847756  21.334062
I   -10.221563  11.656679 -28.600335
Pm   28.486661  -5.930352  11.393995
Ge  -12.534918 -25.944514  15.511041
Sm   25.200484  -9.531957  13.338717
F    -2.974752  11.321469  21.782748
Mn   13.419611  12.148571   4.328634
Pd   -0.474440  10.046502   9.497983
Rn   22.640629   0.758663 -24.426776
Dy   -1.964711  -6.525507  24.601698
Na    4.628001 -21.286482 -25.130098
Re    3.156051  10.749111  10.435101
Al  -10.802361   3.313658 -28.245772
Li   15.143000 -20.231076   9.743725
Rb  -22.464447   6.876254  19.420161
Ru    8.635266  -7.551363 -19.809850
Pm    4.207212   6.741314 -28.295246
Ru  -10.811442 -14.698560  27.480545
Ru  -23.225184  -8.369454   8.879698
Al  -10.120150  13.707888   2.375921
H    -2.432547  17.277409  14.283291
Ar    6.946918   5.505758  -1.943166
Ir   28.104811   1.038827   1.552699
S   -10.710747  10.804936  -5.740186
Mg   18.461660  19.452927  -8.490853
Eu   -2.378701 -25.567469   9.297519
He  -21.639563  -2.539347   8.167725
Se   10.014039   8.997521  23.329798
Be   22.473513   2.655264  -8.078383
Pr  -20.530550   7.250761 -10.001485
Hg   12.252458 -20.831844  12.362384
Lu   16.287911  -6.032746  15.851049
W    13.623541   2.015223   5.195605
Ho   11.660233 -14.586385 -15.872401
Ta  -23.985942 -13.428824 -18.328802
Fe    9.007632 -13.882296 -18.449758
Cl  -12.294832  -6.718247   0.622016
Cu  -13.184683  21.232224  11.411099
Rh  -15.368005   5.096806 -26.373161
He    8.231556  25.028329   7.384282
At   -3.574177 -12.184816  -8.979887
S    -6.698344 -16.326186  14.250321
Zn    8.792716  26.834193  16.337595
Re   -7.911524  13.802698  -6.958067
At   19.358244 -14.216734   6.477503
N     1.889798 -12.303854  18.345611
Na   -4.330924  22.020863 -11.391119
H   -26.176147   4.711723  -6.089441
B    21.866992   9.419697  -1.524855
Be   -1.091368  22.420961 -20.212560
Sb   -2.275806   2.073875 -12.417220
Pt   -0.737780  18.982290   4.536799
K    14.479488   8.739936 -23.741760
Po   20.254641  15.022052 -12.257291
As    5.353086  23.271231  -3.716501
Ti   -6.289785  -3.898967   6.852700
Mg    3.376263 -14.505200 -13.514490
Co   21.679302   8.605918 -20.857993
Sr   25.891589  -8.235920  -8.817092
W    -2.440278   6.472671   5.896934
Ce  -15.781906 -18.596839   6.632953
Cd  -29.914816   9.307262   9.354088
Mo   -2.600314 -31.803170   8.149466
Ni   -9.870396  -2.107663  -6.006634
Te   27.681846 -14.786034   8.049654
Cl   27.999837   4.694716   3.978544
Mo   25.614072   1.355046  -7.681748
Po  -30.225750  -4.733813  -0.198837
La   -5.128965 -19.767143  -7.349182
Pt   -3.541859  29.303759  -8.034603
Be   -2.901715   7.361708 -15.860629
Rb    9.029346  16.215842   2.584780
Ne    4.909658   7.394885 -12.152671
W    12.663891  23.926946  12.307194
Nd   12.412734  15.917626 -21.492409
H   -14.364079 -22.376497  -2.842128
At   -7.363724 -11.416522 -20.231170
Be   23.791423   7.944903   2.013718
Fe   20.480182   4.743559 -20.081111
Mo   18.335726  -5.709083  26.461633
Hf  -10.200698  16.484023  13.049969
Sr  -12.217427   2.273612  16.263719
N    19.474648 -13.631614  17.345842
Kr   26.108672  11.652923  13.518952
Eu   26.730495   3.233810  12.991691
Lu  -23.599448  16.249813   9.046629
Ar   -9.210675  23.320512  14.724072
Er   26.672211  -9.388701  10.521940
Li    7.270611  13.548608   2.967405
Zr    1.115087  28.613105   6.366561
O    -4.498577   5.497112   1.490504
H   -22.691885  14.974447  -2.703228
Cd  -24.531367   8.194569  19.221600
Ba   -7.539827   1.111855   9.306482
Ga    4.151081  -9.523964  30.242383
Zr   22.471898 -11.839274  10.901700
He    1.356974   4.324539 -21.945228
Yb   -5.235879  13.320887   7.401749
Y     9.522108   6.030926  -9.852838
Rn   12.844815  -6.681509   4.605833
Ti    8.893306   6.289676   5.649638
Sc  -25.740184  -9.024184   8.191650
I   -28.189884   5.428817 -16.830177
Na   11.713727  16.512357 -10.496287
Tm   -3.791821  12.507880  15.389947
Sb   21.505694   6.841548 -23.383372
Dy    3.984353 -24.550187  19.467289
Sc   19.194509   0.481659 -23.824434
Hf  -24.050521  20.720278   9.792658
He    2.652672 -29.638305  15.505698
Mn   -4.008448  20.648263  17.150946
Xe   -8.297436 -23.578024  -8.044305
Si    7.346301 -12.258050 -20.975359
As   -1.582064 -16.543032  28.626218
Br    1.768159  26.174054  -8.177661
Ba   -8.317014  -1.754419  -0.093247
Ho    4.793302  31.523585   7.934132
Cr   -1.326118 -12.190580  -6.612424
Tm   -4.016599 -23.309257 -11.208684
Ir  -11.902090  -8.255211 -22.531467
Pm   27.238869   5.529411   4.275458
Al   12.747835 -12.090516  28.649354
Sc   -8.059067  25.844485  -7.500233
Ne  -12.043622  -4.404300   0.092295
La    3.966942  10.075526 -23.613512
Ba   14.545114 -21.190766   4.562525
Ba    5.483353  -8.443365 -23.665539
Na   -6.469044 -22.238493 -16.718943
Tl   17.600060  18.819794   8.843386
Cd  -32.520994  -0.624121  -5.118928
Yb    1.666484 -20.043728 -15.204317
Br    8.589236  11.889660  25.109778
At  -11.716350  25.300899   0.928699
Sn   14.868958  -1.989108  27.441954
Cu    2.207140  14.315121  -0.291281
Nb  -19.973691 -14.929879   7.152839
Hf  -25.681741   4.695045 -10.819074
H    18.195447   4.138203 -26.911380
Ti   10.316665 -30.472368   1.784232
Pd    8.801391  25.388930  13.093883
Fe   -1.726005  22.909045  20.535123
Au  -15.610755  19.386696  22.153834
Al  -29.344232   0.456643   1.429417
He  -10.958391  -1.115126 -10.204957
Na    9.720494 -16.617028  18.490855
Dy   14.296135  23.055177   2.777280
B   -25.133090  -5.399421   3.622776
In    7.315834  18.831647  19.808408
Tb    5.531363 -13.835823   3.778091
F   -20.856444  24.293240  -0.616821
Br   -1.190751  20.428610  25.053215
Ag    7.299119 -13.225577   6.768934
Ba    1.429240  23.097800  -1.004277
Cr   19.661128   6.637317  15.528155
Re    9.476829  26.154841  15.977965
Cr    9.702463  23.465939   0.792801
Cs  -22.630263 -12.527392 -15.643524
Lu    5.188908  19.030512  19.723680
K   -18.967930  13.391394 -23.576555
Ir    0.225355  -6.381644  29.085660
Os   32.763687  -5.100268  -0.252726
Ba  -12.749468  24.661515  -1.253521
Os   -3.107474   7.868160 -22.737144
Ce   19.925638  -7.821189  18.746354
Y   -31.035260  -0.150095   1.080068
Nb   -9.200065   9.153681  15.098280
Pr   24.432383   0.106878   3.648142
At   28.560263  12.032095   9.436135
Hg  -17.162175  12.968148  -5.610197
Dy  -11.099504   0.595002  22.911978
Y     2.814190   8.209463 -30.451229
Sr  -15.249531 -15.308167 -11.816960
Co   20.651088   8.995610  14.821651
Pd   21.084994  -7.215818  20.165784
Fe   11.129691  -2.640847 -31.628963
Pt    4.153342 -14.500097 -10.176080
Mn  -16.572901  15.098962  -0.585916
Pt    7.758570  17.184752  -9.024996
Sr  -14.161280  10.168281 -12.865709
Sc   -4.835415  -2.751182 -20.691018
Sn   29.462953  -0.579459  -4.230263
Er  -17.550177  14.950342 -22.364439
Gd    5.130434 -27.850076  -4.769736
Sm   -7.187304  27.199033  13.409208
N   -16.531158  -0.809424  14.538308
Xe   -5.592618  -8.469452 -21.138969
In   17.275593   6.450425  26.622631
S   -17.713353 -15.324467 -12.797459
C    19.332125   3.933706  -9.604280
Os   -0.949343  -2.355600  17.751647
Gd   12.286014  -7.033300  -5.197060
Er  -10.642771 -16.589065 -16.745834
P   -18.568185  15.573613  13.208374
Ta  -16.172999  14.475748 -16.666579
Hf   24.405400  -0.692649  19.989210
N    20.690078  -3.410073  18.003420
Sc   24.165033  17.443514  -6.758277
As   -1.378010  29.419638 -13.150707
Xe    4.448967 -27.623697 -10.562535
K    -4.441388   9.873445  19.915622
Rb  -15.081353  11.816896  22.213458
Cd  -10.572864   9.361853  22.091455
Pd   21.350377 -25.641543  -0.688485
Pr   -6.943287  -9.725488 -30.716474
Zn    0.302873  -0.956315  27.191744
He   20.546420 -19.707964  -8.814188
Ho   19.417318 -19.035150  13.194885
Pt   25.492812  19.289021  -2.388243
Mn   22.185960  -8.745166   9.383530
Ta  -12.481897  -5.236958   9.839960
Re   -0.684730   8.792900 -30.409293
Co   10.429397   5.979452   3.928784
Al   10.528392 -11.188841 -16.200157
Zn  -10.908294 -28.610256  -7.900340
Co  -16.790315 -24.763315 -10.002890
Te   25.545687  -7.596490   5.950095
Xe  -27.673180  13.567484   6.354233
Au   -9.842353  15.945005  -4.455830
Hg    4.148295 -30.628392  -4.394628
Nb  -17.058810  -8.417349   3.078995
Mn   26.382738   7.977665   5.959193
Kr   27.097363   5.480662   0.194672
Cd    7.652091 -22.956235   2.385178
Be  -10.689753   3.785200  14.412392
Hf   16.282659  20.450406  17.581736
Cr   -6.985905 -29.614079  -4.516128
Co   11.788274  18.910105   3.822055
Se   27.319295  11.976385  -2.928587
Ne    8.978997 -10.838024 -26.341989
Yb   21.399467  13.239129  14.814844
Cs  -20.359473  23.228615   1.411804
Pt  -25.711263  11.437703  12.199658
H   -24.752453  -9.291947  -7.029358
Rn   -4.196206  -9.682179  13.600492
B    -6.963964   0.867668  13.116836
Sm    5.463318  32.817004   1.539754
Rb  -29.370814   0.246291   0.628803
Br   14.459445 -11.662338  26.323199
P    23.263232  -9.779325 -21.197738
Rb   -1.665228 -20.754191 -14.464614
Pd    8.050903   6.836987 -26.157396
Lu    4.476926 -32.454505  -0.226931
Tm   25.858389 -11.120748 -12.125310
Pr   10.146324 -21.611390 -14.124903
Mo   26.279889  16.149102 -11.692386
Y    -0.052492  -0.040521 -21.909185
K    14.030064 -19.676689  22.615881
Rh    2.672203 -23.215714  17.079535
Ce   23.019401   8.328562 -18.229286
Lu    1.717242   7.551857  -4.968864
Sn  -10.826330 -12.393468  13.107205
Rn   -7.279828  24.395352  10.403920
In    3.706308 -21.879219  13.075216
Re    1.205377 -11.941477 -30.243406
Al  -22.758607   7.401274  -8.524832
Cr   -2.695990   8.555269 -31.243224
Ca    2.268896   8.351787  30.607152
Cr  -23.775462  16.151357  15.667895
Fe   19.729397   9.001338 -17.331379
N    -6.221108  20.014023  -5.108549
W   -22.386700  -3.946768   5.512047
Te  -17.636936 -22.548057   7.707472
Ne   22.452041  15.101768  -8.679710
Sm    5.077749  21.285384  20.003588
Sm    1.774063   6.790458 -29.737939
Co  -28.109272 -12.048587  -3.779508
Cr   18.685291 -14.013498  20.375182
Na  -16.561226 -17.397641   0.863417
Dy    6.775712  14.529840  -2.403965
Pt   -7.143621  -8.440463   3.610485
Lu  -11.372765  15.577171   8.603074
Hf    6.955953   9.846688  30.708158
In   -6.075023  -5.231516  -0.404452
Y    28.473211   5.028516  15.025678
Sm   12.739368   4.092620  11.610134
Be  -10.839786  -8.704568   6.698149
N    16.283802 -14.834499 -22.895645
Li  -12.755578  -0.902650  17.627978
Pb    6.649828  21.400082  -4.757592
Se   22.052614  -0.297693  -2.582190
Ta   30.462555  -2.936386 -13.720613
Sb   12.888242 -17.693613  22.822065
Pm    9.907069   4.963854 -31.127366
K    -1.141428  13.429773 -12.395891
Sc  -10.515944  11.025190 -13.993409
Cr   15.139607  -4.567348 -16.013250
K    -0.485934  27.068883 -10.860867
C    27.381019  -5.956478  14.321515
Mo   26.087735 -19.880828   2.529416
Tb    8.517588 -26.173908 -10.894700
I   -11.962480  22.869821   1.371013
Cs  -11.964659 -10.310668  21.906838
Ho   19.522964   8.789619  25.360050
Cr   10.833421   1.544904 -24.507979
V    21.204878  -1.694801 -16.596119
W   -10.896612  20.841756  15.208768
Mg   16.953334 -15.626615 -19.283181
W     9.709314   1.100183   9.176744
Dy   14.036592 -18.516514  -2.948067
Lu  -15.720319   4.544640 -25.260952
Li   23.335017  10.493056 -15.635392
He    8.416032 -13.452749 -20.604558
Pm   -7.961812  -6.209298 -11.977240
C   -22.221972  -2.529864 -25.093340
Pt  -25.778917  -9.794860 -16.337587
Ce  -13.675400   1.004064  -7.131672
Dy  -13.984231   4.496059  12.089587
Ge    3.879707   3.227740  33.238270
Na  -16.482333  21.360895   8.432111
Tl  -16.887885   0.176290 -28.397197
Se    0.699422  -9.902021   2.424247
Hf   16.078906  10.438123 -15.819113
Cu   28.602686 -12.131414   1.267296
Ta    9.622522  20.543919  -9.537902
Ga  -18.515478  -5.580104  -4.229684
Sm   -0.063041  -5.299086   8.827690
F    18.104902 -23.348195  13.666960
B     2.536514 -28.364369 -10.149723
Rb  -16.024735  -3.677138   7.498886
N   -15.296138 -22.249455  -9.472610
In   -6.582348 -15.725244 -28.197449
C     8.199624  15.268678  -7.388891
Ge   -1.834146  -5.569240 -27.888287
Sn    2.769675 -10.874048  20.700463
Ge   20.975218   2.603147  19.331721
La  -13.206834  -0.457298  20.097976
K    12.678065   6.537195  21.070234
Tc    3.760511 -13.547833   1.330887
Ge   10.476473  13.261071 -26.308398
Pr   11.796592  24.923554   3.563153
Au    1.932802  14.864619  10.079372
Cd  -18.966763 -19.652489   6.164812
Pd    3.810514  25.554146 -17.329408
Fe  -11.192945  -9.524155  28.803233
Al  -26.171038  -2.311715  19.729290
P     3.369760  13.877687 -24.634370
Rn   21.307585 -25.241380   5.114124
Er   -0.847118  -4.345950  31.809976
Po   15.396644  22.636241   7.545257
Cs   12.995133  -6.303693  21.196616
Zr   14.528980  21.333000  15.281730
K    -0.846807 -14.095220   1.946275
La    4.516479  21.324321 -18.751606
F   -17.006963  -7.390094 -18.382082
Zn    9.156049   2.295764 -30.813487
H     1.830759 -14.099459 -19.961630
Sm  -17.514444 -19.596759  -3.838691
Be   -2.935103 -13.340002  20.653891
Mn   23.575923   8.200051  -3.635420
Pb   -5.775788   2.623020 -20.265022
Sb   -0.464174 -21.505185  23.753104
Ne   -1.411060 -30.203204 -14.720578
I    22.297321   6.701233 -23.815537
Tm   -8.768390  10.944820   9.584184
Tm   23.197658 -21.063824  10.754946
Hg  -24.507903  17.867000   4.418338
Gd   16.690577  11.530191   4.669468
Kr   20.799263  25.505701  -3.028577
Mo  -15.849184 -21.635833   7.154452
Re   -0.181126  -7.884225   6.464434
Ti    0.439529  10.312276  20.554027
Mn  -21.639729  24.047632   0.266482
Pb   -1.405007 -10.487528 -13.893765
Rh    9.914945  14.179321 -25.327049
Sr   -6.262336 -13.009398 -10.082207
S    11.186678  -5.297668  -4.199838
Eu    5.778200  -1.272293 -22.447818
Pb   -2.964973 -16.192454  18.429001
Ni   -0.478801 -14.465012  17.656063
S    13.241014  26.084286   2.438571
Pr    0.675114 -10.855664 -21.143640
Li   -7.294752  -7.644010 -31.258917
Ni  -21.049296   8.870897  19.493686
Sm   23.462693   1.580185   8.499149
Zr   11.177442  -7.400767   4.070959
Au   13.200170  -1.236323 -30.193277
Eu   -6.891006  19.573019  11.284450
At    6.639204 -18.586601  11.570493
Tm    1.941975  12.717540   7.290342
In   -9.449609 -24.206244  -5.610893
Sn   -1.950887  -5.581027  10.028242
La   -2.411641  23.844618   4.425120
Ba   27.172845   5.262982 -15.164778
Br   -5.727016   9.091994  -1.936492
Lu    0.200047 -21.183606  -4.626381
F   -13.890720  24.011476  -5.575985
Ru   13.304879   1.777626  27.383073
Se   -7.687456 -26.643431   1.638552
Hg   11.554253  25.729673   4.034239
As  -16.557836  13.839211   0.354837
Li   -5.561434  25.406027 -18.208708
Mo   11.404081  -4.586415 -17.974977
Cd   10.828164 -16.927485  18.774090
Sm    7.735688  -6.259793 -22.117974
Bi   -8.787717 -29.012712  -8.230004
Se  -13.560910 -15.296860  21.577493
Sb   -0.990852 -23.659822   7.698421
Ag   27.953070   0.439239   7.888564
Y   -23.713391  15.047868  16.178772
Tm   10.042848  -6.714809  13.829582
Tb   -7.755757 -12.008286 -20.999770
Pt    3.421404 -19.260601   0.977178
Mo   15.921227  14.711679 -24.723388
Sn    2.910432  -4.413697  -7.011205
I    -3.416707 -27.190720 -14.061446
Ga  -11.422757  -5.483222   1.089181
K    11.248052  29.468928  -2.341565
Tb   -2.687582   4.489296  30.141910
Na  -16.458637  13.188606 -18.240893
Y    20.504525  -4.378857  10.171171
Hg    8.056589  26.675228 -17.891752
H     0.080112 -30.352670 -13.959686
Kr   15.118263  -6.109147  17.241861
Sc   -7.370844  11.944723  13.488022
Tb  -15.820997 -21.406682 -12.461998
Pd   15.645223   7.374483  16.885475
Tc    7.779953   9.263652 -29.668290
B   -16.643512 -17.114259 -21.459283
He  -20.321303 -17.293036 -18.405954
Sm    2.890094  -3.527390  -6.205038
Ru   10.040723  26.421152   9.890706
N     2.548444   1.045277 -12.826203
Ge    5.187422  -7.845408   3.880752
Tm  -22.885607  -3.431082  -8.674418
Ba    6.300607   1.804134  10.697908
Tl   -2.689104   5.065068  -1.509559
Rb  -16.294122   2.088993  -4.110767
Dy   -5.451538 -15.116588 -23.554082
Mg  -32.536345   0.753051   0.532654
Sc  -23.561582  21.498409  -2.563292
Si  -20.052593   6.824909  11.272197
Ca   -7.914367  -6.015489 -30.257492
Ge   25.149463  15.358377 -13.156792
At   23.886115  -9.183625  -2.563714
Ho  -27.757309 -16.273081   5.148418
Co   -5.322968 -26.827160 -17.377097
Eu    2.362001  18.394957 -14.763307
In   17.756432 -10.415558  -1.804615
Pm   14.542657  -0.093433 -16.983107
Ru  -11.287096  26.035644   3.473617
Eu   15.784640  -4.863498   3.142722
Pm  -12.553093   6.737970  18.401004
Tl   20.040220   3.005831  19.176905
Pm  -26.194671   1.124925   4.804602
Sm   18.210235   9.278860  -2.028859
Ne   -3.099337  -3.019729 -17.948536
Xe   21.778851   9.608348  17.272130
Nd   -9.102747  24.915749  14.120522
Eu    6.932195 -18.390208   3.418207
Os   10.013064   0.164173   3.009401
K    -6.808861  -7.000927  -6.586273
Pr  -27.631692   0.362493   9.583491
Cd  -15.746676  20.842507 -20.474357
Pb   -8.830383  20.495192  -0.697123
O   -21.779677  -0.001514 -24.586895
Zr   -4.140664  -8.255686 -16.504811
Pm    0.113099   9.404633  15.719755
B   -23.782640  -9.918572 -14.681505
Y   -13.083214 -13.843362 -13.926862
Cd   11.326079  15.726315  -9.823564
Br   16.125421 -12.952464 -21.047643
Ir   -4.314076  19.186150  -9.093047
Sb  -15.585614 -18.965622  -9.241681
Ir    5.139155 -24.746931 -20.715163
Cl   -3.290107  12.228714  -0.963186
F     0.142976  13.246920  -8.314907
Pm  -17.678936  24.780723  -5.751059
Ar    2.124514 -16.364443  18.889972
Li   -0.218794 -30.966780  10.417686
N   -16.511330  -1.870717 -13.575783
V    21.047397   3.342679   9.152860
Sb   16.058776  25.377635  -0.479296
Sc    9.856802  -8.456687 -13.773423
Li  -16.445416 -20.247167  10.922515
Nd  -30.436489   4.168313   4.180289
Mg  -25.229617   3.635921   3.206991
Pm    0.553707  10.844536  12.456406
Be  -18.620173   1.421691   1.443079
Ag    6.078981 -11.057629  12.542171
Cs  -19.088198   1.941099 -15.757634
N    12.391327  -0.863937   4.011411
Ag  -23.802714  11.299945  -5.402376
Ni  -20.792297 -22.507504  -2.505112
Ba   -3.240402 -24.869171  15.221259
Dy   -3.374809   9.436918 -23.148077
S    10.421581  -2.745811   4.657315
S     9.744292 -25.055412  14.944177
Pr  -20.559332 -15.739478   0.531676
Sn   22.166892 -11.389331 -11.376801
Ir  -17.848882  27.370156   7.762500
Os   12.365477  12.565576 -15.777291
Ge    3.144114 -19.054465  -2.129261
Rb    8.793855  12.217469   0.107295
Br   -8.428765  14.458650  13.351809
Xe    9.371363  20.578462  -2.526176
Hg   16.497366  25.411560   7.266136
Br   -2.669208  -7.653297 -22.196539
Pr   23.794587  -0.570673  -8.765932
Ar   -2.746719  -0.574880 -26.785497
Lu   11.338671  21.422434  16.063502
Te    0.899738 -29.534524  -4.824304
At   17.295321  11.450733  25.032837
Ir  -24.511325 -14.391318 -16.619915
P    14.645028  24.212370 -14.483080
Ta    4.045893   1.656980  31.809725
Rn   -9.221759  -2.640068 -11.902302
Si   28.253756  12.588313  -5.069974
Al    1.116400  -3.256258  24.804389
Tm  -21.312285  22.049737  -1.730676
Dy  -26.105907  -7.287339   3.319319
Br  -22.348733  11.484412  17.699081
Ni   24.061990  -0.606386  -3.183279
Sc   11.047787  -3.263657   8.604473
Ga   -1.292179  14.568716  28.872760
Dy    2.839811 -20.645141  21.229984
Zn    4.046953  22.961633  -1.975726
Hf   -8.166957  15.973482   9.599528
Er  -13.507054  19.540612  18.667666
Ru  -22.654442  12.726900  14.006329
Sb   -6.959042  28.414922  13.051100
Te    1.537924  14.044573 -23.760258
Ta  -11.740463  -5.677781 -26.906756
Ta  -28.321804  -0.044003  16.439798
Sr   30.064820  -2.649361  -6.820687
C    -8.100706  -6.570789  17.142985
K    12.651502  25.895745  -8.740985
Sr   -8.215068   8.540192   4.749832
In  -24.289409  -7.099954   0.162645
Pt    7.200832 -25.358626 -11.892527
Pt    8.411259 -22.998612  -9.152534
Tl  -16.575225  15.694299   8.628748
Y    19.282228 -16.453307  16.008220
Lu  -11.344668 -12.943142   6.886643
Rb    0.245020   4.444366  27.161111
Tl   20.364195 -26.064338   1.097481
Nb   24.912950  20.594719  -7.954521
Tc  -19.665036 -10.500988  -6.243315
Lu    2.761924  -1.644988  26.489281
Zn  -12.054785 -23.861233   2.806676
Ir   13.084139  23.469772 -17.399319
C   -14.050056  -7.663629  -6.647483
Ho  -19.077822 -14.555169  17.420022
He   -1.625025  15.302232  19.565800
Ni   -8.795903  22.842714  12.373440
He   29.124576  -1.005868   7.267252
Si   19.246956  -9.549314 -22.206295
Xe    3.366746  20.536604 -23.931933
Nb   -2.113124   9.637120   3.807804
Rn   -8.998642 -28.467555   6.546748
Ta    8.554538 -19.505090 -21.179310
Ni  -15.790713  13.291903  23.690011
Sn  -14.070539  -6.914356  10.640842
Re    1.942371  31.310300   8.158480
Ba   -9.127303  17.719409  17.238314
Pt   19.844303  21.988976   7.274280
W    -4.209493 -16.001952  -8.161536
Li   20.347592 -17.004140  -0.002916
Sm   -2.386098  -6.195916  16.125300
At  -12.153668 -24.049336 -13.349145
C    16.553737  17.617044 -19.409173
Pm  -15.773407  16.921321 -21.545401
Ge    1.001811  31.465913  -6.214603
Cl  -12.945642  26.796818 -10.374497
Cl    4.995631   6.977765  31.239871
Mg    3.399396   7.020430 -23.112140
Ge   19.293586  -7.055524 -18.376291
Cr  -30.431867 -11.422310  -1.966233
Cr   -5.827553  29.342091  12.958094
Lu   20.203705  -5.052108  -6.474396
Co  -28.215236  -7.150638   0.843785
Nb   12.074662  -9.441724  24.184037
Po  -24.261044  20.301639   0.922035
O    -0.243770 -14.936912  -3.596461
O    13.040528  17.277443 -17.643529
K    -4.017949   5.596232 -20.327007
W    -7.387600  27.394414   2.343801
Sc   -3.646223  24.319486  16.399346
Ga   15.477401 -19.885041  19.963906
Ni    0.811218 -29.487340  -5.896318
Li   -5.682031  -8.671515  24.633903
Ce   18.747414 -10.419153   2.482086
S    -9.344495   9.552284  -1.838982
N    25.126027  -2.933229  -0.965423
Sc   18.208728 -25.444234 -10.331878
Bi  -10.834348 -20.442693  -1.570849
Cr  -17.800224 -25.229240  -0.598202
Sb    1.834594 -10.842499  -6.311489
Li  -19.776283 -11.126403  21.807378
C    17.178345 -15.495696  14.925707
Po    3.864505  -2.977588  -0.092178
Rh   -3.028853  20.531431  24.337363
Ge  -19.396825  14.920280  12.701768
B   -13.766677   6.595719  -2.110222
Gd  -21.596540 -22.368359  -3.071882
Ne   14.033366  -2.325102 -18.014040
Sr    2.886160  29.411274 -14.246628
Ni   16.406446  22.975874   0.742816
Ce   21.368386   5.213820 -15.992303
Sb  -29.284109  -3.377999   4.266881
K   -23.491760  17.432334  -8.170567
Gd  -24.683779  13.569115 -13.625958
Ge   -5.906492  22.457156 -15.413286
Dy   14.827165   2.227072 -28.759495
Al   22.324605   8.969815  19.426573
Cs   -0.467583   2.601323   4.394787
Cr  -13.866682  -8.917179  15.092784
Gd    6.020939 -23.006824  -4.490422
Nd   -0.485146  -0.575277  25.716372
Zr  -11.295200  10.499995  -4.855581
B   -27.857198 -11.073624  12.205084
Si  -24.923332  10.273242  -1.818241
Sr  -12.329850  26.231616  -2.330505
Ni    9.973755   6.815471 -20.916178
Ag  -24.968465 -13.429015 -14.026197
Rb  -15.753604 -16.257790 -12.986969
Sc   15.770665 -26.436627 -10.445426
Mo  -16.594161   4.034539 -26.282475
S   -23.106655  12.149531  19.770583
Pb   -3.198529 -17.512924  20.227815
Mn   16.981780  20.607450  -7.011108
Xe   -9.875337  -6.225519  19.130812
Nd   16.403886 -16.235086   8.041859
Pm   11.768903 -27.042433  -9.464209
In   25.150922  -1.922094   4.417573
Hg   -9.168174   7.179713  26.230948
Cu    0.825697  -6.846146  24.603991
Pr   -5.239034  -1.282427   5.614875
Be   -9.329104  15.946025  -3.711118
Sr   -9.069736 -15.076030  27.865466
Ca  -19.596158  17.903481  -6.356818
Cu    9.701865   9.322566   0.990575
Cl  -13.964134 -21.567269  -2.353744
Pt  -26.802376  -6.947634 -15.072320
At   -1.807426  -4.981913  -8.104229
Zr    9.267322 -10.900135 -14.488544
Rh  -14.270616   3.259415   2.013055
Hf    7.567387  31.559577  -7.306704
B    -2.166271 -11.599749 -16.940294
In    4.768625  -4.140294  14.295370
Pt  -22.967657 -24.043752   3.042181
Co  -18.468242  11.917529 -12.865478
Fe    2.039419  -3.964749 -31.917797
B    -2.282920 -18.458306 -16.227745
F   -20.712708  -0.280516  24.327490
Ar  -16.971307  25.700650 -11.446524
Ir   16.298363   6.914892 -17.353070
O    13.707895   5.752491 -13.672595
Sr   -7.475486 -12.347805  -8.086891
Sm  -22.137363 -13.335817  -5.480535
Os  -20.675414 -17.253764  -3.183372
O   -16.087427 -13.027476  16.817860
S    -7.511444  -8.776900  11.633666
Sc  -18.483186   5.737301   2.728996
Hg   10.070523  -1.720637  -3.610031
Ta   16.956942  -4.936626  21.339999
Sb    5.149282 -27.320711  -8.527065
Sr   -4.068779 -19.175481   3.770402
Te   -8.325631  10.436265 -16.694417
Dy   15.392905   4.903704  19.658584
Sc    8.868389 -29.830082  -2.808944
Sb  -11.634964 -21.740507   5.825929
Lu   26.066628 -20.316496   4.383595
Fe    9.063698 -16.301132 -26.212922
N     1.276370   1.333652 -21.185849
W    15.375727  18.598449  -6.422279
Pm   28.290944  -5.117087  -0.397299
Tl    2.157669  11.227658  -6.797841
Ca   -7.138216   7.957441   4.823863
Br  -21.490735   5.344800  -3.619465
At   -2.440855 -26.253396  -1.468883
Sb    0.612924  23.161747   9.682596
Pr   -3.588795 -27.672124  12.937337
Li    6.076439 -25.329788   7.553040
Li   14.863480 -26.477344  12.079688
Tl   19.844989   1.507754  19.230538
Li   11.238542   1.500650   7.249362
Pr   -1.038571  32.144488   5.897845
Ce   18.654235 -12.131646 -12.056328
Ba  -25.605067   9.914204 -11.411045
Pr  -17.588891  -9.624885 -18.881383
Gd   20.125375  -8.184936  12.079291
Er    6.308821 -18.758193   2.802778
P   -10.760999 -14.435619  13.805116
Ru  -31.945184   3.040787  -3.658840
Sn    2.073749   8.760702  20.397656
N     0.292998  19.609600  -4.361758
Ni  -31.525137   6.528313  -2.338525
Ag   11.073424  -8.216820  -0.172162
Tb   -2.027512   1.177166  18.913961
Mg   -8.697713  -8.862705   3.051492
S     3.109807  -0.815655   2.171356
Hg   24.567567  12.664855  -0.498794
In   21.324977   1.219549  17.672265
I     5.179610  -4.487967 -13.433711
Lu    0.061189  -9.018375  -1.923151
Te    7.656744   8.344609  25.965142
Ga   -0.093976 -16.483730  20.164286
Nd   -0.445267  -1.697926  18.037496
Zn  -23.147759   4.505499  -3.726530
Be    6.454814  -2.703821   1.334589
Tc  -25.954069   7.681412  16.853909
P    -6.567450  -6.683688 -29.717406
F    18.827154  -4.749809  -4.641101
Ca   -6.711570  -9.459779  28.056657
Pb   -7.578795  -4.949249   3.382403
Li   -8.359291 -12.502267  14.189613
Pt    3.810429 -15.299834  15.302174
Li   10.544659  -1.472463  22.957578
Rb    5.529412 -16.465294 -21.787871
Ir  -14.792434 -15.399661  11.575364
Ga   -4.192460 -12.005301  17.084337
Hf  -25.221979  20.547617  -7.691558
Ir   -8.652004 -13.301645   0.855523
Po   24.883877  11.279300  17.187609
Ar  -24.087052  -6.895626  -4.299167
W    21.966119   4.893361  19.728061
Sm  -18.925094  13.639340  14.947318
Rb   11.046753   7.230984   4.157790
Pm    7.853731 -14.368525 -17.821178
Te    8.151167  20.669100  -0.711425
La   16.941937  20.703670  -8.954848
Pd  -21.130722  -4.775321 -17.853356
Al   -0.836167  26.377146  -3.612382
Ho    1.945279  21.845701  21.347969
Ta   14.764822  -4.519706  13.889893
Ar   17.159677   9.515882  -4.599797
Sb   22.283215  -5.063029  12.153201
Sr   -2.368064 -24.624969 -21.013580
Ga    5.492249   4.005855   9.315551
At   17.163241  10.048484  -3.239599
At   -1.016173  -8.341117  20.715397
Mn  -14.235823  18.436126  22.297444
H     8.890164   4.799821  29.329631
Pr   -2.661948  19.533829 -16.309095
Nb  -17.799899  -4.940611 -17.057461
Ni  -30.705508  -9.234489  -4.582285
Er  -10.655972  -8.338625   9.456339
Sm   -4.813034  -5.244665 -21.939053
Be   -3.563075 -21.298484 -20.366166
S    18.353653 -17.604755  -8.768918
Tm    1.753095  29.915724 -11.848115
Co    4.946413  19.164736 -25.852139
Be   15.068034   4.156582  25.060024
Po  -15.406537   5.427878  -2.106376
Eu   11.564792   2.736520   9.211893
O   -17.791809   7.563699 -26.469830
Hf   19.451171   2.393034  16.957715
Be   13.152946 -24.329908  10.910553
Be   -2.409694  13.130507 -25.788117
Mg  -21.114212  -6.875901   7.348213
Hf  -11.125576   2.268349 -12.650071
Br    2.960228  30.148164  13.446287
Y    18.614145  -4.010186  27.385249
Tl   -6.511558 -17.434740  21.861763
Cu   20.365865  10.249402   8.198718
Sc   -6.983356  27.071275  -6.121690
Se    1.287215  13.149814   3.864939
Cs   -9.505992   1.018881  18.044782
Tc   -6.769141  24.325702 -21.554515
Ag  -13.592337   2.111710 -13.796989
Mg    3.897811  -0.169826 -28.954029
Zn  -11.287820   2.349805  21.352637
Ru   -4.917862   7.671625   9.177028
Pd   -9.253829  13.726844 -27.094389
Tm  -15.610934  25.605908  12.332065
Cs    3.449404  -3.753264  18.698069
C    16.165005  26.965494  -1.586938
Sn  -21.120072  -7.612157   3.750722
W   -13.214805  -0.354915 -21.079797
Dy   12.386571  13.139062  10.833568
Pt    7.319334   2.792858  16.504200
Be  -25.131888  -5.084396  -2.803650
Rb    1.461622  27.089057  -5.426361
Te  -19.611410  -9.590014 -18.136677
Tb   18.030877   3.018149 -17.843166
Mo   21.868538 -13.889093  18.813973
Pb  -30.006889  -3.052822   3.256697
O     4.440398   2.120944 -29.549667
O    19.587392  20.853224   1.105392
Tm   -1.263386  -3.865511 -30.127797
Pr    3.571061 -28.603515  -5.785767
Sb    9.256152  10.021351   6.045441
Ge   10.638817 -20.084160  20.955696
Pt   27.696312  -3.400612  -4.727546
As  -11.564158  -2.240938   4.256677
Cd  -27.963494   6.027666  -4.564518
Sr   -3.545852 -11.574253   0.742447
Dy   -1.915136   8.196512 -15.389637
Al    2.247592 -19.413636   2.516577
W   -16.866972 -13.434303 -17.645476
Xe    3.328813 -11.453823   8.096054
Be  -10.335486  23.234758  16.063415
Rn    2.145129 -19.131218   6.320026
Yb    3.252618   3.747319 -30.634669
Br    5.847845 -17.940323  17.168084
Lu   11.591824  28.486785 -11.980427
Eu   -2.563235  -9.307714  -6.567476
Hg    5.458729 -10.228633 -18.114375
Ru   -2.279497  13.322152  25.891492
Tb   12.283845 -17.440821   0.672782
Nd   20.487129  21.535705   0.560698
P     4.103874  26.802867   4.968392
K   -16.834672  11.437703 -12.442228
Sm   -4.665069 -30.064142  -4.686068
Ce   21.904862  14.588800  -9.330403
In   23.274856 -13.737086  -9.700786
Cr  -26.723618 -17.711353  -8.912541
Mg    7.042265  -9.155890  31.275924
Sr    7.975895  28.053365  -8.664409
Xe   10.006567  -2.718650   8.661912
N    19.778639  -1.924808  24.436331
P   -12.642816  14.643838  -8.431107
Ge    9.581049 -15.331362 -23.095316
W    -8.663441  24.945722 -15.417650
S    13.626011  23.176418  -5.402302
In  -20.316155   7.902163   2.366094
Er   12.336899  11.391488  -7.417907
Ni   14.312239  -0.151254  -2.328031
Sb    8.873405   8.534722  -6.698356
Nb    4.952671 -31.551704   4.278782
Tm   18.520080 -21.146664   4.530342
Pr  -16.441919 -23.682969  17.162715
Pt   10.266849   1.202013 -15.241221
In   19.153164 -14.037557 -16.245224
Pr   14.388654  -2.041739  23.084140
Tm    8.631881 -26.868486 -12.104571
Te    4.678662  27.534340   2.843854
B   -12.235480  -7.726554  12.278444
Br   15.203734  20.315139  15.110479
O     3.926347 -19.865371   9.819251
Mo   -5.803666  15.572971 -18.461105
Y    -5.635497  10.816389  28.458793
Cr   15.782125  23.737803 -12.477369
Hf  -22.551994  -7.934228  -5.028489
K    -5.279600  -8.577023  20.272557
Ti   13.707308 -20.760150 -19.060850
Rb   16.211847 -26.229405  10.537162
Eu  -21.876966  18.209770   8.447926
Pb  -11.013479  -1.798233  29.658889
Sb    1.297190 -23.429960 -17.296031
Ru  -21.321639 -17.718065   4.490835
Na  -25.142182  -3.773008   4.260443
Na   16.333020 -16.807684  -0.553419
Po   28.283341  11.870857  13.678642
V   -11.450989  13.943798 -16.321066
Hg   -3.479894  30.686727   2.568942
Br   16.626640 -25.289271  -4.903034
V     0.193707   0.708100   7.770426
Bi   -7.085374   7.618089 -23.420869
Sm    9.020472   5.594229 -28.228691
Ga   16.760983 -12.760611 -17.138425
Ce   17.469147 -13.987846   1.460656
Sb   -8.024950   1.207656  -1.336354
Sr   -9.928679  26.386821  -5.376777
Pd   12.468365 -22.954019  17.170008
Mo  -16.868168   6.806150  18.196697
Te   -5.776204 -18.940905  -7.855873
Lu   24.259819  -4.699172 -21.482620
Gd    6.190895  20.256169   8.018823
Nd  -15.354281  -4.817437   5.074268
F    -1.104067 -22.789315   9.560558
Os  -14.762973  -3.706783  10.548715
Ga  -26.397711  -4.472668  -6.616707
Au  -12.727534   7.401281  -6.970088
Er   17.350754  12.621661  10.283503
Cr   25.619448  -5.234214   5.074761
Cu   12.876408 -23.194424   5.030094
Ge    3.859688 -11.389456 -12.332497
Re   16.677261 -23.691578   6.814653
Hg    7.179929 -12.686549   8.430394
Zn  -17.048785 -14.251177 -12.731948
Pt    3.265611  -8.860514  -8.621933
Lu    3.354216  33.187344   1.656279
Pm    3.556408  10.951069   1.086328
Ag  -19.949292  24.105235   9.999550
Ru   -2.821546  26.374071  16.587105
Se  -14.677191 -13.187282   6.327038
Sr   -2.432474 -27.816239 -10.477353
Cd  -12.264818   7.383724 -25.510918
Mg    5.173381 -27.135872 -13.399155
Tl  -30.858381  -7.863483   3.974798
Pm   -5.758234 -11.662290   7.171727
Xe   -8.629420  14.815757 -20.104248
Dy  -16.209538   6.464320  12.734509
Xe    2.144952  26.767501  17.383176
Cr  -18.604620  -1.696467 -27.963815
Tb   -3.168789  10.650673  -0.064124
Co   17.610119   1.072442 -15.373379
Ir    2.959299   8.040202  -9.406884
Cu   -3.787425  -4.771157   5.796075
Se  -19.105025  10.323965   4.039410
Hf  -13.161654 -19.452155 -18.782841
Pt  -21.733922  15.212396  13.976376
Li   27.038566   5.996718  15.729031
Bi  -14.629170  16.461799 -22.327072
I   -19.927807 -10.543264 -12.163373
Cr   32.352482   8.695076  -2.608003
Si    9.941186  -4.394842  17.943451
Al   16.254482 -24.443934 -11.352596
Ce  -12.742290  21.330485 -20.064450
Sb  -21.507460  14.437212  14.124650
Au   -3.815484 -14.168393  23.965917
Gd   26.170122 -15.969350   2.714335
Si   12.490060  12.007416 -20.595056
B    17.764258 -24.607983  -9.724433
Sr   30.066039   1.161621   8.846543
Te   -6.980843  24.805312  12.001545
Sc   -0.847675 -23.254755 -18.179672
Sn   -1.058914 -32.220162  -7.190511
V   -21.634380  25.091196  -3.639716
Sc   -4.525367   3.851236  -8.876200
Te    9.199738  10.548202 -22.326113
Pb   20.935565  20.832481   9.690157
Ir   25.148454 -13.307786   7.944118
Re   -5.058248   1.600621  15.753770
Ca   20.245326  -3.955755   1.810660
Tl  -10.212515  24.944169  11.626468
Na  -24.150787  16.187643  -6.161754
Sb  -14.234481   1.949569 -11.914653
Cl  -15.253342  10.814383   6.623235
Pb  -20.112352 -24.118654  -5.101877
Zr   18.698949   7.779604  25.364077
Pr  -12.645026  -7.445399  -8.055535
Na   22.019582 -13.522641   7.074395
Ta  -16.249029 -21.655543   9.233747
Xe   20.811546 -14.139835 -15.720389
W    10.157108  -2.178797  19.522722
Dy    5.692592  18.886275   0.265355
Ir   24.251060   5.337193  -5.807337
Ti   20.597735   9.829140 -14.926171
F    15.705706 -24.289796 -15.148879
Sr  -26.024959   2.738731  13.839383
Ca   -0.726415 -23.645297  -8.931111
Li   -2.297320  23.583036   5.938690
H    -5.374931  12.176173 -15.147470
Rb    5.792219  20.915754 -18.413977
Xe   18.299073  -1.417157 -14.133656
W   -18.145007  -6.945476  18.951027
Ho   -9.993807  28.706203 -12.363368
Ta  -11.305660   9.841808  14.484189
Mn  -15.867991   9.133424  21.127728
Xe   29.057874 -11.866638   7.442058
Lu   26.045677   2.689950  -3.912731
Cr   23.244916  -1.845909  10.229547
Co   21.332853  18.639592   1.113322
Sn  -10.134085  -3.184309  16.523293
Nb    3.492476  15.199334  -4.275424
At   10.956693 -16.408661  -3.313544
Y     1.490279   0.826335  13.022109
Rb   27.206300   4.342865   6.879856
Ge   27.699127  -7.432052 -16.682254
O     1.649583  -4.854287  16.718504
Os  -28.755082   2.065983   5.342963
Pt  -18.275924   5.520434  -3.609582
As   -2.407788   6.843184   6.920795
Br  -19.073077  12.144476  18.521054
Na    7.708970  22.224525  -7.921756
Br    7.768037   8.394638   5.868417
Pt   -6.751017  -2.950744  11.025581
Tm  -21.790409  -5.939149  20.144810
Tc  -27.832566  -0.547398   7.151645
Pb  -10.669010  22.527631   0.954162
Pt   -0.063247 -22.950045  14.631052
Pm  -18.592196  -2.268860   2.625898
Ru   10.765847 -26.950023  -4.229807
Sr    8.236507  -0.935015 -32.610765
Cs   -8.919666  -2.823743   2.290012
Os   12.498906  -9.002379  28.603343
At  -18.792622 -16.370746   4.709608
La    8.627965  -8.675533  22.057139
Si   17.722079  12.071010  18.213996
Se    9.935635  25.981045 -10.687784
